# vtk DataFile Version 3.1
for FEM Programme igpoints output
ASCII
DATASET POLYDATA
POINTS 640 double
 341.666667 45.833333 0.0
 345.833333 41.666667 0.0
 329.166667 45.833333 0.0
 333.333333 41.666667 0.0
 316.666667 45.833333 0.0
 320.833333 41.666667 0.0
 304.166667 45.833333 0.0
 308.333333 41.666667 0.0
 291.666667 45.833333 0.0
 295.833333 41.666667 0.0
 279.166667 45.833333 0.0
 283.333333 41.666667 0.0
 266.666667 45.833333 0.0
 270.833333 41.666667 0.0
 254.166667 45.833333 0.0
 258.333333 41.666667 0.0
 241.666667 45.833333 0.0
 245.833333 41.666667 0.0
 229.166667 45.833333 0.0
 233.333333 41.666667 0.0
 216.666667 45.833333 0.0
 220.833333 41.666667 0.0
 204.166667 45.833333 0.0
 208.333333 41.666667 0.0
 191.666667 45.833333 0.0
 195.833333 41.666667 0.0
 179.166667 45.833333 0.0
 183.333333 41.666667 0.0
 166.666667 45.833333 0.0
 170.833333 41.666667 0.0
 154.166667 45.833333 0.0
 158.333333 41.666667 0.0
 141.666667 45.833333 0.0
 145.833333 41.666667 0.0
 129.166667 45.833333 0.0
 133.333333 41.666667 0.0
 116.666667 45.833333 0.0
 120.833333 41.666667 0.0
 104.166667 45.833333 0.0
 108.333333 41.666667 0.0
 91.666667 45.833333 0.0
 95.833333 41.666667 0.0
 79.166667 45.833333 0.0
 83.333333 41.666667 0.0
 66.666667 45.833333 0.0
 70.833333 41.666667 0.0
 54.166667 45.833333 0.0
 58.333333 41.666667 0.0
 41.666667 45.833333 0.0
 45.833333 41.666667 0.0
 29.166667 45.833333 0.0
 33.333333 41.666667 0.0
 16.666667 45.833333 0.0
 20.833333 41.666667 0.0
 4.166667 45.833333 0.0
 8.333333 41.666667 0.0
 -8.333333 45.833333 0.0
 -4.166667 41.666667 0.0
 -20.833333 45.833333 0.0
 -16.666667 41.666667 0.0
 -33.333333 45.833333 0.0
 -29.166667 41.666667 0.0
 -45.833333 45.833333 0.0
 -41.666667 41.666667 0.0
 -58.333333 45.833333 0.0
 -54.166667 41.666667 0.0
 -70.833333 45.833333 0.0
 -66.666667 41.666667 0.0
 -83.333333 45.833333 0.0
 -79.166667 41.666667 0.0
 -95.833333 45.833333 0.0
 -91.666667 41.666667 0.0
 -108.333333 45.833333 0.0
 -104.166667 41.666667 0.0
 -120.833333 45.833333 0.0
 -116.666667 41.666667 0.0
 -133.333333 45.833333 0.0
 -129.166667 41.666667 0.0
 -145.833333 45.833333 0.0
 -141.666667 41.666667 0.0
 -158.333333 45.833333 0.0
 -154.166667 41.666667 0.0
 -170.833333 45.833333 0.0
 -166.666667 41.666667 0.0
 -183.333333 45.833333 0.0
 -179.166667 41.666667 0.0
 -195.833333 45.833333 0.0
 -191.666667 41.666667 0.0
 -208.333333 45.833333 0.0
 -204.166667 41.666667 0.0
 -220.833333 45.833333 0.0
 -216.666667 41.666667 0.0
 -233.333333 45.833333 0.0
 -229.166667 41.666667 0.0
 -245.833333 45.833333 0.0
 -241.666667 41.666667 0.0
 -258.333333 45.833333 0.0
 -254.166667 41.666667 0.0
 -270.833333 45.833333 0.0
 -266.666667 41.666667 0.0
 -283.333333 45.833333 0.0
 -279.166667 41.666667 0.0
 -295.833333 45.833333 0.0
 -291.666667 41.666667 0.0
 -308.333333 45.833333 0.0
 -304.166667 41.666667 0.0
 -320.833333 45.833333 0.0
 -316.666667 41.666667 0.0
 -333.333333 45.833333 0.0
 -329.166667 41.666667 0.0
 -345.833333 45.833333 0.0
 -341.666667 41.666667 0.0
 -358.333333 45.833333 0.0
 -354.166667 41.666667 0.0
 -370.833333 45.833333 0.0
 -366.666667 41.666667 0.0
 -383.333333 45.833333 0.0
 -379.166667 41.666667 0.0
 -395.833333 45.833333 0.0
 -391.666667 41.666667 0.0
 -408.333333 45.833333 0.0
 -404.166667 41.666667 0.0
 -420.833333 45.833333 0.0
 -416.666667 41.666667 0.0
 -433.333333 45.833333 0.0
 -429.166667 41.666667 0.0
 -445.833333 45.833333 0.0
 -441.666667 41.666667 0.0
 -458.333333 45.833333 0.0
 -454.166667 41.666667 0.0
 -470.833333 45.833333 0.0
 -466.666667 41.666667 0.0
 -483.333333 45.833333 0.0
 -479.166667 41.666667 0.0
 -495.833333 45.833333 0.0
 -491.666667 41.666667 0.0
 -508.333333 45.833333 0.0
 -504.166667 41.666667 0.0
 -520.833333 45.833333 0.0
 -516.666667 41.666667 0.0
 -533.333333 45.833333 0.0
 -529.166667 41.666667 0.0
 -545.833333 45.833333 0.0
 -541.666667 41.666667 0.0
 -558.333333 45.833333 0.0
 -554.166667 41.666667 0.0
 -570.833333 45.833333 0.0
 -566.666667 41.666667 0.0
 -583.333333 45.833333 0.0
 -579.166667 41.666667 0.0
 -595.833333 45.833333 0.0
 -591.666667 41.666667 0.0
 -608.333333 45.833333 0.0
 -604.166667 41.666667 0.0
 -620.833333 45.833333 0.0
 -616.666667 41.666667 0.0
 -633.333333 45.833333 0.0
 -629.166667 41.666667 0.0
 -645.833333 45.833333 0.0
 -641.666667 41.666667 0.0
 341.666667 33.333333 0.0
 345.833333 29.166667 0.0
 329.166667 33.333333 0.0
 333.333333 29.166667 0.0
 316.666667 33.333333 0.0
 320.833333 29.166667 0.0
 304.166667 33.333333 0.0
 308.333333 29.166667 0.0
 291.666667 33.333333 0.0
 295.833333 29.166667 0.0
 279.166667 33.333333 0.0
 283.333333 29.166667 0.0
 266.666667 33.333333 0.0
 270.833333 29.166667 0.0
 254.166667 33.333333 0.0
 258.333333 29.166667 0.0
 241.666667 33.333333 0.0
 245.833333 29.166667 0.0
 229.166667 33.333333 0.0
 233.333333 29.166667 0.0
 216.666667 33.333333 0.0
 220.833333 29.166667 0.0
 204.166667 33.333333 0.0
 208.333333 29.166667 0.0
 191.666667 33.333333 0.0
 195.833333 29.166667 0.0
 179.166667 33.333333 0.0
 183.333333 29.166667 0.0
 166.666667 33.333333 0.0
 170.833333 29.166667 0.0
 154.166667 33.333333 0.0
 158.333333 29.166667 0.0
 141.666667 33.333333 0.0
 145.833333 29.166667 0.0
 129.166667 33.333333 0.0
 133.333333 29.166667 0.0
 116.666667 33.333333 0.0
 120.833333 29.166667 0.0
 104.166667 33.333333 0.0
 108.333333 29.166667 0.0
 91.666667 33.333333 0.0
 95.833333 29.166667 0.0
 79.166667 33.333333 0.0
 83.333333 29.166667 0.0
 66.666667 33.333333 0.0
 70.833333 29.166667 0.0
 54.166667 33.333333 0.0
 58.333333 29.166667 0.0
 41.666667 33.333333 0.0
 45.833333 29.166667 0.0
 29.166667 33.333333 0.0
 33.333333 29.166667 0.0
 16.666667 33.333333 0.0
 20.833333 29.166667 0.0
 4.166667 33.333333 0.0
 8.333333 29.166667 0.0
 -8.333333 33.333333 0.0
 -4.166667 29.166667 0.0
 -20.833333 33.333333 0.0
 -16.666667 29.166667 0.0
 -33.333333 33.333333 0.0
 -29.166667 29.166667 0.0
 -45.833333 33.333333 0.0
 -41.666667 29.166667 0.0
 -58.333333 33.333333 0.0
 -54.166667 29.166667 0.0
 -70.833333 33.333333 0.0
 -66.666667 29.166667 0.0
 -83.333333 33.333333 0.0
 -79.166667 29.166667 0.0
 -95.833333 33.333333 0.0
 -91.666667 29.166667 0.0
 -108.333333 33.333333 0.0
 -104.166667 29.166667 0.0
 -120.833333 33.333333 0.0
 -116.666667 29.166667 0.0
 -133.333333 33.333333 0.0
 -129.166667 29.166667 0.0
 -145.833333 33.333333 0.0
 -141.666667 29.166667 0.0
 -158.333333 33.333333 0.0
 -154.166667 29.166667 0.0
 -170.833333 33.333333 0.0
 -166.666667 29.166667 0.0
 -183.333333 33.333333 0.0
 -179.166667 29.166667 0.0
 -195.833333 33.333333 0.0
 -191.666667 29.166667 0.0
 -208.333333 33.333333 0.0
 -204.166667 29.166667 0.0
 -220.833333 33.333333 0.0
 -216.666667 29.166667 0.0
 -233.333333 33.333333 0.0
 -229.166667 29.166667 0.0
 -245.833333 33.333333 0.0
 -241.666667 29.166667 0.0
 -258.333333 33.333333 0.0
 -254.166667 29.166667 0.0
 -270.833333 33.333333 0.0
 -266.666667 29.166667 0.0
 -283.333333 33.333333 0.0
 -279.166667 29.166667 0.0
 -295.833333 33.333333 0.0
 -291.666667 29.166667 0.0
 -308.333333 33.333333 0.0
 -304.166667 29.166667 0.0
 -320.833333 33.333333 0.0
 -316.666667 29.166667 0.0
 -333.333333 33.333333 0.0
 -329.166667 29.166667 0.0
 -345.833333 33.333333 0.0
 -341.666667 29.166667 0.0
 -358.333333 33.333333 0.0
 -354.166667 29.166667 0.0
 -370.833333 33.333333 0.0
 -366.666667 29.166667 0.0
 -383.333333 33.333333 0.0
 -379.166667 29.166667 0.0
 -395.833333 33.333333 0.0
 -391.666667 29.166667 0.0
 -408.333333 33.333333 0.0
 -404.166667 29.166667 0.0
 -420.833333 33.333333 0.0
 -416.666667 29.166667 0.0
 -433.333333 33.333333 0.0
 -429.166667 29.166667 0.0
 -445.833333 33.333333 0.0
 -441.666667 29.166667 0.0
 -458.333333 33.333333 0.0
 -454.166667 29.166667 0.0
 -470.833333 33.333333 0.0
 -466.666667 29.166667 0.0
 -483.333333 33.333333 0.0
 -479.166667 29.166667 0.0
 -495.833333 33.333333 0.0
 -491.666667 29.166667 0.0
 -508.333333 33.333333 0.0
 -504.166667 29.166667 0.0
 -520.833333 33.333333 0.0
 -516.666667 29.166667 0.0
 -533.333333 33.333333 0.0
 -529.166667 29.166667 0.0
 -545.833333 33.333333 0.0
 -541.666667 29.166667 0.0
 -558.333333 33.333333 0.0
 -554.166667 29.166667 0.0
 -570.833333 33.333333 0.0
 -566.666667 29.166667 0.0
 -583.333333 33.333333 0.0
 -579.166667 29.166667 0.0
 -595.833333 33.333333 0.0
 -591.666667 29.166667 0.0
 -608.333333 33.333333 0.0
 -604.166667 29.166667 0.0
 -620.833333 33.333333 0.0
 -616.666667 29.166667 0.0
 -633.333333 33.333333 0.0
 -629.166667 29.166667 0.0
 -645.833333 33.333333 0.0
 -641.666667 29.166667 0.0
 341.666667 20.833333 0.0
 345.833333 16.666667 0.0
 329.166667 20.833333 0.0
 333.333333 16.666667 0.0
 316.666667 20.833333 0.0
 320.833333 16.666667 0.0
 304.166667 20.833333 0.0
 308.333333 16.666667 0.0
 291.666667 20.833333 0.0
 295.833333 16.666667 0.0
 279.166667 20.833333 0.0
 283.333333 16.666667 0.0
 266.666667 20.833333 0.0
 270.833333 16.666667 0.0
 254.166667 20.833333 0.0
 258.333333 16.666667 0.0
 241.666667 20.833333 0.0
 245.833333 16.666667 0.0
 229.166667 20.833333 0.0
 233.333333 16.666667 0.0
 216.666667 20.833333 0.0
 220.833333 16.666667 0.0
 204.166667 20.833333 0.0
 208.333333 16.666667 0.0
 191.666667 20.833333 0.0
 195.833333 16.666667 0.0
 179.166667 20.833333 0.0
 183.333333 16.666667 0.0
 166.666667 20.833333 0.0
 170.833333 16.666667 0.0
 154.166667 20.833333 0.0
 158.333333 16.666667 0.0
 141.666667 20.833333 0.0
 145.833333 16.666667 0.0
 129.166667 20.833333 0.0
 133.333333 16.666667 0.0
 116.666667 20.833333 0.0
 120.833333 16.666667 0.0
 104.166667 20.833333 0.0
 108.333333 16.666667 0.0
 91.666667 20.833333 0.0
 95.833333 16.666667 0.0
 79.166667 20.833333 0.0
 83.333333 16.666667 0.0
 66.666667 20.833333 0.0
 70.833333 16.666667 0.0
 54.166667 20.833333 0.0
 58.333333 16.666667 0.0
 41.666667 20.833333 0.0
 45.833333 16.666667 0.0
 29.166667 20.833333 0.0
 33.333333 16.666667 0.0
 16.666667 20.833333 0.0
 20.833333 16.666667 0.0
 4.166667 20.833333 0.0
 8.333333 16.666667 0.0
 -8.333333 20.833333 0.0
 -4.166667 16.666667 0.0
 -20.833333 20.833333 0.0
 -16.666667 16.666667 0.0
 -33.333333 20.833333 0.0
 -29.166667 16.666667 0.0
 -45.833333 20.833333 0.0
 -41.666667 16.666667 0.0
 -58.333333 20.833333 0.0
 -54.166667 16.666667 0.0
 -70.833333 20.833333 0.0
 -66.666667 16.666667 0.0
 -83.333333 20.833333 0.0
 -79.166667 16.666667 0.0
 -95.833333 20.833333 0.0
 -91.666667 16.666667 0.0
 -108.333333 20.833333 0.0
 -104.166667 16.666667 0.0
 -120.833333 20.833333 0.0
 -116.666667 16.666667 0.0
 -133.333333 20.833333 0.0
 -129.166667 16.666667 0.0
 -145.833333 20.833333 0.0
 -141.666667 16.666667 0.0
 -158.333333 20.833333 0.0
 -154.166667 16.666667 0.0
 -170.833333 20.833333 0.0
 -166.666667 16.666667 0.0
 -183.333333 20.833333 0.0
 -179.166667 16.666667 0.0
 -195.833333 20.833333 0.0
 -191.666667 16.666667 0.0
 -208.333333 20.833333 0.0
 -204.166667 16.666667 0.0
 -220.833333 20.833333 0.0
 -216.666667 16.666667 0.0
 -233.333333 20.833333 0.0
 -229.166667 16.666667 0.0
 -245.833333 20.833333 0.0
 -241.666667 16.666667 0.0
 -258.333333 20.833333 0.0
 -254.166667 16.666667 0.0
 -270.833333 20.833333 0.0
 -266.666667 16.666667 0.0
 -283.333333 20.833333 0.0
 -279.166667 16.666667 0.0
 -295.833333 20.833333 0.0
 -291.666667 16.666667 0.0
 -308.333333 20.833333 0.0
 -304.166667 16.666667 0.0
 -320.833333 20.833333 0.0
 -316.666667 16.666667 0.0
 -333.333333 20.833333 0.0
 -329.166667 16.666667 0.0
 -345.833333 20.833333 0.0
 -341.666667 16.666667 0.0
 -358.333333 20.833333 0.0
 -354.166667 16.666667 0.0
 -370.833333 20.833333 0.0
 -366.666667 16.666667 0.0
 -383.333333 20.833333 0.0
 -379.166667 16.666667 0.0
 -395.833333 20.833333 0.0
 -391.666667 16.666667 0.0
 -408.333333 20.833333 0.0
 -404.166667 16.666667 0.0
 -420.833333 20.833333 0.0
 -416.666667 16.666667 0.0
 -433.333333 20.833333 0.0
 -429.166667 16.666667 0.0
 -445.833333 20.833333 0.0
 -441.666667 16.666667 0.0
 -458.333333 20.833333 0.0
 -454.166667 16.666667 0.0
 -470.833333 20.833333 0.0
 -466.666667 16.666667 0.0
 -483.333333 20.833333 0.0
 -479.166667 16.666667 0.0
 -495.833333 20.833333 0.0
 -491.666667 16.666667 0.0
 -508.333333 20.833333 0.0
 -504.166667 16.666667 0.0
 -520.833333 20.833333 0.0
 -516.666667 16.666667 0.0
 -533.333333 20.833333 0.0
 -529.166667 16.666667 0.0
 -545.833333 20.833333 0.0
 -541.666667 16.666667 0.0
 -558.333333 20.833333 0.0
 -554.166667 16.666667 0.0
 -570.833333 20.833333 0.0
 -566.666667 16.666667 0.0
 -583.333333 20.833333 0.0
 -579.166667 16.666667 0.0
 -595.833333 20.833333 0.0
 -591.666667 16.666667 0.0
 -608.333333 20.833333 0.0
 -604.166667 16.666667 0.0
 -620.833333 20.833333 0.0
 -616.666667 16.666667 0.0
 -633.333333 20.833333 0.0
 -629.166667 16.666667 0.0
 -645.833333 20.833333 0.0
 -641.666667 16.666667 0.0
 341.666667 8.333333 0.0
 345.833333 4.166667 0.0
 329.166667 8.333333 0.0
 333.333333 4.166667 0.0
 316.666667 8.333333 0.0
 320.833333 4.166667 0.0
 304.166667 8.333333 0.0
 308.333333 4.166667 0.0
 291.666667 8.333333 0.0
 295.833333 4.166667 0.0
 279.166667 8.333333 0.0
 283.333333 4.166667 0.0
 266.666667 8.333333 0.0
 270.833333 4.166667 0.0
 254.166667 8.333333 0.0
 258.333333 4.166667 0.0
 241.666667 8.333333 0.0
 245.833333 4.166667 0.0
 229.166667 8.333333 0.0
 233.333333 4.166667 0.0
 216.666667 8.333333 0.0
 220.833333 4.166667 0.0
 204.166667 8.333333 0.0
 208.333333 4.166667 0.0
 191.666667 8.333333 0.0
 195.833333 4.166667 0.0
 179.166667 8.333333 0.0
 183.333333 4.166667 0.0
 166.666667 8.333333 0.0
 170.833333 4.166667 0.0
 154.166667 8.333333 0.0
 158.333333 4.166667 0.0
 141.666667 8.333333 0.0
 145.833333 4.166667 0.0
 129.166667 8.333333 0.0
 133.333333 4.166667 0.0
 116.666667 8.333333 0.0
 120.833333 4.166667 0.0
 104.166667 8.333333 0.0
 108.333333 4.166667 0.0
 91.666667 8.333333 0.0
 95.833333 4.166667 0.0
 79.166667 8.333333 0.0
 83.333333 4.166667 0.0
 66.666667 8.333333 0.0
 70.833333 4.166667 0.0
 54.166667 8.333333 0.0
 58.333333 4.166667 0.0
 41.666667 8.333333 0.0
 45.833333 4.166667 0.0
 29.166667 8.333333 0.0
 33.333333 4.166667 0.0
 16.666667 8.333333 0.0
 20.833333 4.166667 0.0
 4.166667 8.333333 0.0
 8.333333 4.166667 0.0
 -8.333333 8.333333 0.0
 -4.166667 4.166667 0.0
 -20.833333 8.333333 0.0
 -16.666667 4.166667 0.0
 -33.333333 8.333333 0.0
 -29.166667 4.166667 0.0
 -45.833333 8.333333 0.0
 -41.666667 4.166667 0.0
 -58.333333 8.333333 0.0
 -54.166667 4.166667 0.0
 -70.833333 8.333333 0.0
 -66.666667 4.166667 0.0
 -83.333333 8.333333 0.0
 -79.166667 4.166667 0.0
 -95.833333 8.333333 0.0
 -91.666667 4.166667 0.0
 -108.333333 8.333333 0.0
 -104.166667 4.166667 0.0
 -120.833333 8.333333 0.0
 -116.666667 4.166667 0.0
 -133.333333 8.333333 0.0
 -129.166667 4.166667 0.0
 -145.833333 8.333333 0.0
 -141.666667 4.166667 0.0
 -158.333333 8.333333 0.0
 -154.166667 4.166667 0.0
 -170.833333 8.333333 0.0
 -166.666667 4.166667 0.0
 -183.333333 8.333333 0.0
 -179.166667 4.166667 0.0
 -195.833333 8.333333 0.0
 -191.666667 4.166667 0.0
 -208.333333 8.333333 0.0
 -204.166667 4.166667 0.0
 -220.833333 8.333333 0.0
 -216.666667 4.166667 0.0
 -233.333333 8.333333 0.0
 -229.166667 4.166667 0.0
 -245.833333 8.333333 0.0
 -241.666667 4.166667 0.0
 -258.333333 8.333333 0.0
 -254.166667 4.166667 0.0
 -270.833333 8.333333 0.0
 -266.666667 4.166667 0.0
 -283.333333 8.333333 0.0
 -279.166667 4.166667 0.0
 -295.833333 8.333333 0.0
 -291.666667 4.166667 0.0
 -308.333333 8.333333 0.0
 -304.166667 4.166667 0.0
 -320.833333 8.333333 0.0
 -316.666667 4.166667 0.0
 -333.333333 8.333333 0.0
 -329.166667 4.166667 0.0
 -345.833333 8.333333 0.0
 -341.666667 4.166667 0.0
 -358.333333 8.333333 0.0
 -354.166667 4.166667 0.0
 -370.833333 8.333333 0.0
 -366.666667 4.166667 0.0
 -383.333333 8.333333 0.0
 -379.166667 4.166667 0.0
 -395.833333 8.333333 0.0
 -391.666667 4.166667 0.0
 -408.333333 8.333333 0.0
 -404.166667 4.166667 0.0
 -420.833333 8.333333 0.0
 -416.666667 4.166667 0.0
 -433.333333 8.333333 0.0
 -429.166667 4.166667 0.0
 -445.833333 8.333333 0.0
 -441.666667 4.166667 0.0
 -458.333333 8.333333 0.0
 -454.166667 4.166667 0.0
 -470.833333 8.333333 0.0
 -466.666667 4.166667 0.0
 -483.333333 8.333333 0.0
 -479.166667 4.166667 0.0
 -495.833333 8.333333 0.0
 -491.666667 4.166667 0.0
 -508.333333 8.333333 0.0
 -504.166667 4.166667 0.0
 -520.833333 8.333333 0.0
 -516.666667 4.166667 0.0
 -533.333333 8.333333 0.0
 -529.166667 4.166667 0.0
 -545.833333 8.333333 0.0
 -541.666667 4.166667 0.0
 -558.333333 8.333333 0.0
 -554.166667 4.166667 0.0
 -570.833333 8.333333 0.0
 -566.666667 4.166667 0.0
 -583.333333 8.333333 0.0
 -579.166667 4.166667 0.0
 -595.833333 8.333333 0.0
 -591.666667 4.166667 0.0
 -608.333333 8.333333 0.0
 -604.166667 4.166667 0.0
 -620.833333 8.333333 0.0
 -616.666667 4.166667 0.0
 -633.333333 8.333333 0.0
 -629.166667 4.166667 0.0
 -645.833333 8.333333 0.0
 -641.666667 4.166667 0.0
POINT_DATA 640
VECTORS displacement double
0.082079  -2.600551  0.0
0.06565  -2.616993  0.0
0.082057  -2.551222  0.0
0.065637  -2.567666  0.0
0.082009  -2.501901  0.0
0.065606  -2.518335  0.0
0.081934  -2.452616  0.0
0.065552  -2.469033  0.0
0.081831  -2.403385  0.0
0.065477  -2.419779  0.0
0.081701  -2.354226  0.0
0.06538  -2.370593  0.0
0.081545  -2.305155  0.0
0.065263  -2.321488  0.0
0.081364  -2.256187  0.0
0.065125  -2.272482  0.0
0.081156  -2.207337  0.0
0.064967  -2.223588  0.0
0.080923  -2.158621  0.0
0.064788  -2.174824  0.0
0.080664  -2.110054  0.0
0.064588  -2.126203  0.0
0.08038  -2.061651  0.0
0.064368  -2.077741  0.0
0.08007  -2.013429  0.0
0.064127  -2.029455  0.0
0.079734  -1.965402  0.0
0.063865  -1.981358  0.0
0.079372  -1.917585  0.0
0.063583  -1.933468  0.0
0.078985  -1.869995  0.0
0.063281  -1.885798  0.0
0.078572  -1.822646  0.0
0.062958  -1.838365  0.0
0.078133  -1.775555  0.0
0.062614  -1.791184  0.0
0.077669  -1.728736  0.0
0.06225  -1.74427  0.0
0.077178  -1.682205  0.0
0.061865  -1.697639  0.0
0.076663  -1.635977  0.0
0.06146  -1.651306  0.0
0.076121  -1.590068  0.0
0.061034  -1.605286  0.0
0.075554  -1.544493  0.0
0.060588  -1.559596  0.0
0.074961  -1.499268  0.0
0.060121  -1.51425  0.0
0.074342  -1.454408  0.0
0.059633  -1.469264  0.0
0.073698  -1.409928  0.0
0.059125  -1.424654  0.0
0.073027  -1.365844  0.0
0.058596  -1.380434  0.0
0.072332  -1.322171  0.0
0.058047  -1.33662  0.0
0.07161  -1.278925  0.0
0.057477  -1.293228  0.0
0.070863  -1.236122  0.0
0.056887  -1.250273  0.0
0.07009  -1.193776  0.0
0.056276  -1.20777  0.0
0.069291  -1.151902  0.0
0.055644  -1.165735  0.0
0.068467  -1.110518  0.0
0.054992  -1.124184  0.0
0.067617  -1.069637  0.0
0.054319  -1.083131  0.0
0.066741  -1.029275  0.0
0.053626  -1.042592  0.0
0.06584  -0.989448  0.0
0.052912  -1.002583  0.0
0.064913  -0.950171  0.0
0.052178  -0.963119  0.0
0.06396  -0.91146  0.0
0.051423  -0.924215  0.0
0.062981  -0.87333  0.0
0.050647  -0.885887  0.0
0.061977  -0.835796  0.0
0.049851  -0.84815  0.0
0.060947  -0.798874  0.0
0.049035  -0.81102  0.0
0.059891  -0.762579  0.0
0.048197  -0.774512  0.0
0.05881  -0.726927  0.0
0.04734  -0.738642  0.0
0.057703  -0.691932  0.0
0.046461  -0.703424  0.0
0.05657  -0.657612  0.0
0.045562  -0.668875  0.0
0.055411  -0.62398  0.0
0.044643  -0.635009  0.0
0.054227  -0.591053  0.0
0.043703  -0.601843  0.0
0.053017  -0.558845  0.0
0.042742  -0.569392  0.0
0.051781  -0.527372  0.0
0.041761  -0.53767  0.0
0.05052  -0.496651  0.0
0.04076  -0.506694  0.0
0.049233  -0.466695  0.0
0.039737  -0.476479  0.0
0.04792  -0.437521  0.0
0.038694  -0.44704  0.0
0.046582  -0.409143  0.0
0.037631  -0.418393  0.0
0.045218  -0.381578  0.0
0.036547  -0.390553  0.0
0.043828  -0.354841  0.0
0.035443  -0.363536  0.0
0.042412  -0.328947  0.0
0.034317  -0.337357  0.0
0.040971  -0.303911  0.0
0.033172  -0.312031  0.0
0.039504  -0.27975  0.0
0.032005  -0.287574  0.0
0.038011  -0.256477  0.0
0.030819  -0.264001  0.0
0.036493  -0.23411  0.0
0.029611  -0.241328  0.0
0.034949  -0.212663  0.0
0.028383  -0.219571  0.0
0.033379  -0.192152  0.0
0.027135  -0.198743  0.0
0.031783  -0.172592  0.0
0.025866  -0.178862  0.0
0.030162  -0.153998  0.0
0.024576  -0.159942  0.0
0.028515  -0.136386  0.0
0.023266  -0.141999  0.0
0.026842  -0.119772  0.0
0.021935  -0.125049  0.0
0.025144  -0.104171  0.0
0.020584  -0.109106  0.0
0.02342  -0.089598  0.0
0.019212  -0.094186  0.0
0.02167  -0.076068  0.0
0.01782  -0.080304  0.0
0.019895  -0.063598  0.0
0.016407  -0.067477  0.0
0.018094  -0.052202  0.0
0.014973  -0.055719  0.0
0.016267  -0.041896  0.0
0.013519  -0.045045  0.0
0.014414  -0.032695  0.0
0.012044  -0.035472  0.0
0.012536  -0.024615  0.0
0.010549  -0.027014  0.0
0.010632  -0.017669  0.0
0.009033  -0.019687  0.0
0.008702  -0.011875  0.0
0.007497  -0.013505  0.0
0.006744  -0.007245  0.0
0.005939  -0.008483  0.0
0.004756  -0.003798  0.0
0.004359  -0.004638  0.0
0.002745  -0.001536  0.0
0.002757  -0.00199  0.0
0.000776  -0.000355  0.0
0.001161  -0.000551  0.0
0.032793  -2.600558  0.0
0.01637  -2.617012  0.0
0.032783  -2.551219  0.0
0.016368  -2.56767  0.0
0.032761  -2.501891  0.0
0.016358  -2.51833  0.0
0.03273  -2.452599  0.0
0.016343  -2.469023  0.0
0.03269  -2.403363  0.0
0.016325  -2.419765  0.0
0.032639  -2.354199  0.0
0.016302  -2.370575  0.0
0.032578  -2.305122  0.0
0.016274  -2.321467  0.0
0.032507  -2.256149  0.0
0.016241  -2.272457  0.0
0.032425  -2.207294  0.0
0.016204  -2.22356  0.0
0.032333  -2.158572  0.0
0.016161  -2.174791  0.0
0.032231  -2.11  0.0
0.016113  -2.126166  0.0
0.032119  -2.061592  0.0
0.016059  -2.077701  0.0
0.031997  -2.013364  0.0
0.016001  -2.029411  0.0
0.031864  -1.965331  0.0
0.015938  -1.98131  0.0
0.031721  -1.917509  0.0
0.015869  -1.933416  0.0
0.031567  -1.869914  0.0
0.015795  -1.885742  0.0
0.031403  -1.82256  0.0
0.015717  -1.838305  0.0
0.031229  -1.775463  0.0
0.015633  -1.79112  0.0
0.031045  -1.728638  0.0
0.015543  -1.744202  0.0
0.030851  -1.682102  0.0
0.015449  -1.697567  0.0
0.030646  -1.635869  0.0
0.01535  -1.651231  0.0
0.030431  -1.589954  0.0
0.015245  -1.605207  0.0
0.030205  -1.544374  0.0
0.015135  -1.559513  0.0
0.02997  -1.499143  0.0
0.015021  -1.514164  0.0
0.029724  -1.454278  0.0
0.014901  -1.469174  0.0
0.029468  -1.409793  0.0
0.014775  -1.424559  0.0
0.029201  -1.365703  0.0
0.014645  -1.380336  0.0
0.028924  -1.322025  0.0
0.01451  -1.336518  0.0
0.028637  -1.278774  0.0
0.014369  -1.293122  0.0
0.02834  -1.235965  0.0
0.014224  -1.250163  0.0
0.028032  -1.193613  0.0
0.014073  -1.207657  0.0
0.027714  -1.151735  0.0
0.013917  -1.165618  0.0
0.027386  -1.110345  0.0
0.013756  -1.124062  0.0
0.027047  -1.069458  0.0
0.013589  -1.083006  0.0
0.026699  -1.029091  0.0
0.013418  -1.042463  0.0
0.02634  -0.989259  0.0
0.013241  -1.00245  0.0
0.02597  -0.949977  0.0
0.01306  -0.962982  0.0
0.025591  -0.91126  0.0
0.012873  -0.924074  0.0
0.025201  -0.873124  0.0
0.012681  -0.885742  0.0
0.024801  -0.835585  0.0
0.012484  -0.848002  0.0
0.02439  -0.798657  0.0
0.012282  -0.810868  0.0
0.023969  -0.762357  0.0
0.012074  -0.774356  0.0
0.023538  -0.726699  0.0
0.011862  -0.738482  0.0
0.023097  -0.6917  0.0
0.011644  -0.70326  0.0
0.022645  -0.657374  0.0
0.011421  -0.668707  0.0
0.022183  -0.623737  0.0
0.011193  -0.634838  0.0
0.021711  -0.590804  0.0
0.01096  -0.601668  0.0
0.021229  -0.558591  0.0
0.010722  -0.569212  0.0
0.020736  -0.527113  0.0
0.010478  -0.537487  0.0
0.020233  -0.496386  0.0
0.01023  -0.506507  0.0
0.01972  -0.466425  0.0
0.009976  -0.476288  0.0
0.019196  -0.437245  0.0
0.009717  -0.446845  0.0
0.018662  -0.408862  0.0
0.009453  -0.418195  0.0
0.018118  -0.381292  0.0
0.009184  -0.390351  0.0
0.017564  -0.354549  0.0
0.00891  -0.36333  0.0
0.016999  -0.328649  0.0
0.008631  -0.337147  0.0
0.016424  -0.303608  0.0
0.008346  -0.311817  0.0
0.015839  -0.279441  0.0
0.008057  -0.287356  0.0
0.015243  -0.256164  0.0
0.007762  -0.26378  0.0
0.014637  -0.233791  0.0
0.007462  -0.241103  0.0
0.014021  -0.212339  0.0
0.007157  -0.219341  0.0
0.013395  -0.191822  0.0
0.006847  -0.19851  0.0
0.012758  -0.172257  0.0
0.006531  -0.178625  0.0
0.012111  -0.153658  0.0
0.006211  -0.159701  0.0
0.011454  -0.136041  0.0
0.005885  -0.141755  0.0
0.010786  -0.119421  0.0
0.005554  -0.1248  0.0
0.010109  -0.103814  0.0
0.005218  -0.108853  0.0
0.009421  -0.089236  0.0
0.004877  -0.093929  0.0
0.008722  -0.075701  0.0
0.004531  -0.080044  0.0
0.008013  -0.063225  0.0
0.00418  -0.067213  0.0
0.007294  -0.051824  0.0
0.003823  -0.055451  0.0
0.006565  -0.041512  0.0
0.003462  -0.044774  0.0
0.005826  -0.032306  0.0
0.003095  -0.035197  0.0
0.005076  -0.024221  0.0
0.002723  -0.026735  0.0
0.004316  -0.017271  0.0
0.002346  -0.019405  0.0
0.003547  -0.011471  0.0
0.001966  -0.01322  0.0
0.002769  -0.006838  0.0
0.001582  -0.008196  0.0
0.001982  -0.003387  0.0
0.001196  -0.004348  0.0
0.001182  -0.00115  0.0
0.000804  -0.001705  0.0
0.000385  -0.000196  0.0
0.000394  -0.000341  0.0
-0.016482  -2.600583  0.0
-0.032917  -2.617063  0.0
-0.016476  -2.551226  0.0
-0.032903  -2.567685  0.0
-0.016466  -2.501891  0.0
-0.032885  -2.518336  0.0
-0.016451  -2.452598  0.0
-0.032857  -2.469027  0.0
-0.016428  -2.403362  0.0
-0.032817  -2.419771  0.0
-0.0164  -2.354197  0.0
-0.032766  -2.370582  0.0
-0.016366  -2.30512  0.0
-0.032703  -2.321475  0.0
-0.016327  -2.256146  0.0
-0.032631  -2.272465  0.0
-0.016282  -2.20729  0.0
-0.032548  -2.223569  0.0
-0.016233  -2.158568  0.0
-0.032454  -2.174801  0.0
-0.016178  -2.109995  0.0
-0.032351  -2.126177  0.0
-0.016118  -2.061586  0.0
-0.032237  -2.077713  0.0
-0.016053  -2.013357  0.0
-0.032113  -2.029423  0.0
-0.015983  -1.965324  0.0
-0.031978  -1.981324  0.0
-0.015907  -1.917501  0.0
-0.031833  -1.93343  0.0
-0.015827  -1.869905  0.0
-0.031678  -1.885757  0.0
-0.015741  -1.82255  0.0
-0.031513  -1.838321  0.0
-0.01565  -1.775452  0.0
-0.031337  -1.791137  0.0
-0.015554  -1.728627  0.0
-0.031151  -1.74422  0.0
-0.015453  -1.68209  0.0
-0.030955  -1.697586  0.0
-0.015347  -1.635856  0.0
-0.030749  -1.65125  0.0
-0.015236  -1.589941  0.0
-0.030532  -1.605227  0.0
-0.015119  -1.54436  0.0
-0.030305  -1.559534  0.0
-0.014998  -1.499128  0.0
-0.030068  -1.514185  0.0
-0.014871  -1.454262  0.0
-0.02982  -1.469196  0.0
-0.014739  -1.409776  0.0
-0.029562  -1.424582  0.0
-0.014602  -1.365686  0.0
-0.029294  -1.380359  0.0
-0.01446  -1.322007  0.0
-0.029015  -1.336542  0.0
-0.014312  -1.278755  0.0
-0.028727  -1.293147  0.0
-0.01416  -1.235945  0.0
-0.028428  -1.250189  0.0
-0.014002  -1.193593  0.0
-0.028118  -1.207683  0.0
-0.013839  -1.151714  0.0
-0.027799  -1.165645  0.0
-0.013671  -1.110323  0.0
-0.027469  -1.124091  0.0
-0.013498  -1.069436  0.0
-0.027129  -1.083035  0.0
-0.01332  -1.029068  0.0
-0.026778  -1.042493  0.0
-0.013137  -0.989235  0.0
-0.026418  -1.002481  0.0
-0.012948  -0.949952  0.0
-0.026047  -0.963013  0.0
-0.012755  -0.911234  0.0
-0.025665  -0.924106  0.0
-0.012556  -0.873098  0.0
-0.025274  -0.885775  0.0
-0.012352  -0.835558  0.0
-0.024872  -0.848035  0.0
-0.012143  -0.798629  0.0
-0.02446  -0.810902  0.0
-0.011929  -0.762328  0.0
-0.024037  -0.774391  0.0
-0.01171  -0.72667  0.0
-0.023605  -0.738518  0.0
-0.011485  -0.691669  0.0
-0.023162  -0.703297  0.0
-0.011255  -0.657343  0.0
-0.022709  -0.668745  0.0
-0.011021  -0.623705  0.0
-0.022245  -0.634876  0.0
-0.010781  -0.590771  0.0
-0.021771  -0.601707  0.0
-0.010536  -0.558557  0.0
-0.021287  -0.569252  0.0
-0.010286  -0.527079  0.0
-0.020793  -0.537528  0.0
-0.01003  -0.496351  0.0
-0.020288  -0.506548  0.0
-0.00977  -0.466389  0.0
-0.019773  -0.47633  0.0
-0.009504  -0.437208  0.0
-0.019248  -0.446888  0.0
-0.009233  -0.408825  0.0
-0.018712  -0.418238  0.0
-0.008958  -0.381254  0.0
-0.018166  -0.390395  0.0
-0.008677  -0.35451  0.0
-0.01761  -0.363375  0.0
-0.00839  -0.32861  0.0
-0.017044  -0.337193  0.0
-0.008099  -0.303568  0.0
-0.016467  -0.311864  0.0
-0.007803  -0.2794  0.0
-0.01588  -0.287404  0.0
-0.007501  -0.256122  0.0
-0.015283  -0.263828  0.0
-0.007194  -0.233749  0.0
-0.014676  -0.241152  0.0
-0.006882  -0.212295  0.0
-0.014058  -0.219391  0.0
-0.006565  -0.191778  0.0
-0.01343  -0.198561  0.0
-0.006243  -0.172212  0.0
-0.012792  -0.178676  0.0
-0.005916  -0.153612  0.0
-0.012143  -0.159753  0.0
-0.005584  -0.135994  0.0
-0.011484  -0.141807  0.0
-0.005246  -0.119374  0.0
-0.010815  -0.124854  0.0
-0.004903  -0.103766  0.0
-0.010135  -0.108907  0.0
-0.004555  -0.089187  0.0
-0.009446  -0.093984  0.0
-0.004202  -0.075651  0.0
-0.008746  -0.0801  0.0
-0.003844  -0.063174  0.0
-0.008035  -0.067269  0.0
-0.003481  -0.051772  0.0
-0.007315  -0.055508  0.0
-0.003113  -0.04146  0.0
-0.006584  -0.044832  0.0
-0.002739  -0.032254  0.0
-0.005843  -0.035256  0.0
-0.00236  -0.024168  0.0
-0.005091  -0.026796  0.0
-0.001975  -0.017218  0.0
-0.004329  -0.019467  0.0
-0.001584  -0.01142  0.0
-0.003555  -0.013285  0.0
-0.001185  -0.006789  0.0
-0.00277  -0.008264  0.0
-0.000774  -0.003337  0.0
-0.001968  -0.004418  0.0
-0.000357  -0.001085  0.0
-0.001149  -0.001754  0.0
9e-06  -0.000145  0.0
-0.000364  -0.000333  0.0
-0.0658  -2.600632  0.0
-0.082286  -2.61716  0.0
-0.065764  -2.551243  0.0
-0.082226  -2.56771  0.0
-0.065715  -2.501904  0.0
-0.082166  -2.518352  0.0
-0.065648  -2.452614  0.0
-0.082087  -2.469047  0.0
-0.06556  -2.403382  0.0
-0.081984  -2.419796  0.0
-0.065451  -2.354222  0.0
-0.081857  -2.370613  0.0
-0.065322  -2.305149  0.0
-0.081705  -2.321512  0.0
-0.065172  -2.256179  0.0
-0.081527  -2.272508  0.0
-0.065002  -2.207327  0.0
-0.081323  -2.223617  0.0
-0.064811  -2.158608  0.0
-0.081093  -2.174855  0.0
-0.064599  -2.110039  0.0
-0.080838  -2.126237  0.0
-0.064367  -2.061634  0.0
-0.080557  -2.077777  0.0
-0.064114  -2.013409  0.0
-0.08025  -2.029493  0.0
-0.063841  -1.96538  0.0
-0.079918  -1.981399  0.0
-0.063547  -1.917561  0.0
-0.079559  -1.933511  0.0
-0.063233  -1.869969  0.0
-0.079176  -1.885843  0.0
-0.062898  -1.822618  0.0
-0.078766  -1.838413  0.0
-0.062542  -1.775524  0.0
-0.078331  -1.791234  0.0
-0.062166  -1.728702  0.0
-0.07787  -1.744322  0.0
-0.061769  -1.682169  0.0
-0.077383  -1.697693  0.0
-0.061352  -1.635939  0.0
-0.076871  -1.651363  0.0
-0.060914  -1.590028  0.0
-0.076333  -1.605346  0.0
-0.060456  -1.54445  0.0
-0.075769  -1.559658  0.0
-0.059977  -1.499223  0.0
-0.075179  -1.514314  0.0
-0.059477  -1.45436  0.0
-0.074564  -1.469331  0.0
-0.058957  -1.409878  0.0
-0.073923  -1.424722  0.0
-0.058416  -1.365792  0.0
-0.073257  -1.380505  0.0
-0.057855  -1.322117  0.0
-0.072564  -1.336693  0.0
-0.057273  -1.278869  0.0
-0.071846  -1.293303  0.0
-0.056671  -1.236063  0.0
-0.071103  -1.250351  0.0
-0.056048  -1.193714  0.0
-0.070333  -1.20785  0.0
-0.055405  -1.151839  0.0
-0.069538  -1.165818  0.0
-0.054741  -1.110452  0.0
-0.068717  -1.124268  0.0
-0.054056  -1.069569  0.0
-0.067871  -1.083218  0.0
-0.053351  -1.029205  0.0
-0.066998  -1.042681  0.0
-0.052625  -0.989375  0.0
-0.0661  -1.002675  0.0
-0.051879  -0.950096  0.0
-0.065177  -0.963213  0.0
-0.051112  -0.911383  0.0
-0.064227  -0.924311  0.0
-0.050325  -0.87325  0.0
-0.063252  -0.885985  0.0
-0.049517  -0.835714  0.0
-0.062251  -0.848251  0.0
-0.048688  -0.798789  0.0
-0.061225  -0.811123  0.0
-0.047839  -0.762492  0.0
-0.060173  -0.774618  0.0
-0.046969  -0.726838  0.0
-0.059095  -0.738749  0.0
-0.046079  -0.691841  0.0
-0.057991  -0.703534  0.0
-0.045168  -0.657518  0.0
-0.056862  -0.668987  0.0
-0.044237  -0.623884  0.0
-0.055707  -0.635124  0.0
-0.043285  -0.590954  0.0
-0.054526  -0.60196  0.0
-0.042312  -0.558744  0.0
-0.05332  -0.569511  0.0
-0.041319  -0.52727  0.0
-0.052087  -0.537792  0.0
-0.040305  -0.496546  0.0
-0.050829  -0.506818  0.0
-0.039271  -0.466588  0.0
-0.049546  -0.476605  0.0
-0.038216  -0.437411  0.0
-0.048237  -0.447169  0.0
-0.037141  -0.409031  0.0
-0.046902  -0.418524  0.0
-0.036045  -0.381464  0.0
-0.045541  -0.390686  0.0
-0.034929  -0.354724  0.0
-0.044155  -0.363671  0.0
-0.033792  -0.328828  0.0
-0.042743  -0.337495  0.0
-0.032634  -0.30379  0.0
-0.041305  -0.312171  0.0
-0.031456  -0.279626  0.0
-0.039841  -0.287716  0.0
-0.030257  -0.256351  0.0
-0.038352  -0.264146  0.0
-0.029038  -0.233982  0.0
-0.036837  -0.241475  0.0
-0.027798  -0.212533  0.0
-0.035296  -0.21972  0.0
-0.026538  -0.192019  0.0
-0.03373  -0.198895  0.0
-0.025257  -0.172456  0.0
-0.032138  -0.179016  0.0
-0.023955  -0.153861  0.0
-0.03052  -0.160099  0.0
-0.022633  -0.136247  0.0
-0.028877  -0.142158  0.0
-0.02129  -0.11963  0.0
-0.027208  -0.12521  0.0
-0.019927  -0.104026  0.0
-0.025513  -0.109269  0.0
-0.018543  -0.089451  0.0
-0.023792  -0.094351  0.0
-0.017139  -0.075919  0.0
-0.022046  -0.080472  0.0
-0.015714  -0.063446  0.0
-0.020274  -0.067647  0.0
-0.014268  -0.052048  0.0
-0.018476  -0.055891  0.0
-0.012802  -0.04174  0.0
-0.016653  -0.04522  0.0
-0.011315  -0.032537  0.0
-0.014804  -0.03565  0.0
-0.009808  -0.024456  0.0
-0.012929  -0.027195  0.0
-0.008281  -0.017511  0.0
-0.011029  -0.019872  0.0
-0.006733  -0.011718  0.0
-0.009105  -0.013695  0.0
-0.005166  -0.007092  0.0
-0.007158  -0.008681  0.0
-0.00358  -0.003641  0.0
-0.005192  -0.004839  0.0
-0.001975  -0.001358  0.0
-0.003211  -0.002163  0.0
-0.000373  -0.000188  0.0
-0.001191  -0.000544  0.0
FIELD FieldData 2
Strain 3 640 double
1e-06 0.0 -2e-06 
0.0 1e-06 -2e-06 
3e-06 -1e-06 -4e-06 
2e-06 0.0 -4e-06 
6e-06 -1e-06 -5e-06 
3e-06 -1e-06 -3e-06 
8e-06 -2e-06 -6e-06 
4e-06 -1e-06 -2e-06 
1.1e-05 -3e-06 -6e-06 
5e-06 -2e-06 -1e-06 
1.3e-05 -3e-06 -7e-06 
7e-06 -3e-06 -1e-06 
1.6e-05 -4e-06 -7e-06 
8e-06 -3e-06 0.0 
1.8e-05 -4e-06 -8e-06 
9e-06 -4e-06 1e-06 
2.1e-05 -5e-06 -9e-06 
1e-05 -4e-06 1e-06 
2.3e-05 -5e-06 -9e-06 
1.2e-05 -5e-06 2e-06 
2.6e-05 -6e-06 -1e-05 
1.3e-05 -5e-06 3e-06 
2.8e-05 -6e-06 -1e-05 
1.4e-05 -6e-06 3e-06 
3.1e-05 -7e-06 -1.1e-05 
1.5e-05 -6e-06 4e-06 
3.3e-05 -8e-06 -1.2e-05 
1.7e-05 -7e-06 4e-06 
3.6e-05 -8e-06 -1.2e-05 
1.8e-05 -8e-06 5e-06 
3.8e-05 -9e-06 -1.3e-05 
1.9e-05 -8e-06 6e-06 
4.1e-05 -9e-06 -1.3e-05 
2e-05 -9e-06 6e-06 
4.3e-05 -1e-05 -1.4e-05 
2.2e-05 -9e-06 7e-06 
4.6e-05 -1e-05 -1.5e-05 
2.3e-05 -1e-05 8e-06 
4.8e-05 -1.1e-05 -1.5e-05 
2.4e-05 -1e-05 8e-06 
5.1e-05 -1.1e-05 -1.6e-05 
2.5e-05 -1.1e-05 9e-06 
5.3e-05 -1.2e-05 -1.7e-05 
2.6e-05 -1.1e-05 9e-06 
5.5e-05 -1.3e-05 -1.7e-05 
2.8e-05 -1.2e-05 1e-05 
5.8e-05 -1.3e-05 -1.8e-05 
2.9e-05 -1.3e-05 1.1e-05 
6e-05 -1.4e-05 -1.8e-05 
3e-05 -1.3e-05 1.1e-05 
6.3e-05 -1.4e-05 -1.9e-05 
3.1e-05 -1.4e-05 1.2e-05 
6.5e-05 -1.5e-05 -2e-05 
3.3e-05 -1.4e-05 1.2e-05 
6.8e-05 -1.5e-05 -2e-05 
3.4e-05 -1.5e-05 1.3e-05 
7e-05 -1.6e-05 -2.1e-05 
3.5e-05 -1.5e-05 1.4e-05 
7.3e-05 -1.6e-05 -2.2e-05 
3.6e-05 -1.6e-05 1.4e-05 
7.5e-05 -1.7e-05 -2.2e-05 
3.8e-05 -1.6e-05 1.5e-05 
7.8e-05 -1.8e-05 -2.3e-05 
3.9e-05 -1.7e-05 1.6e-05 
8e-05 -1.8e-05 -2.3e-05 
4e-05 -1.8e-05 1.6e-05 
8.3e-05 -1.9e-05 -2.4e-05 
4.1e-05 -1.8e-05 1.7e-05 
8.5e-05 -1.9e-05 -2.5e-05 
4.3e-05 -1.9e-05 1.7e-05 
8.8e-05 -2e-05 -2.5e-05 
4.4e-05 -1.9e-05 1.8e-05 
9e-05 -2e-05 -2.6e-05 
4.5e-05 -2e-05 1.9e-05 
9.2e-05 -2.1e-05 -2.6e-05 
4.6e-05 -2e-05 1.9e-05 
9.5e-05 -2.1e-05 -2.7e-05 
4.7e-05 -2.1e-05 2e-05 
9.7e-05 -2.2e-05 -2.8e-05 
4.9e-05 -2.1e-05 2e-05 
0.0001 -2.3e-05 -2.8e-05 
5e-05 -2.2e-05 2.1e-05 
0.000102 -2.3e-05 -2.9e-05 
5.1e-05 -2.3e-05 2.2e-05 
0.000105 -2.4e-05 -3e-05 
5.2e-05 -2.3e-05 2.2e-05 
0.000107 -2.4e-05 -3e-05 
5.4e-05 -2.4e-05 2.3e-05 
0.00011 -2.5e-05 -3.1e-05 
5.5e-05 -2.4e-05 2.4e-05 
0.000112 -2.5e-05 -3.1e-05 
5.6e-05 -2.5e-05 2.4e-05 
0.000115 -2.6e-05 -3.2e-05 
5.7e-05 -2.5e-05 2.5e-05 
0.000117 -2.6e-05 -3.3e-05 
5.9e-05 -2.6e-05 2.5e-05 
0.00012 -2.7e-05 -3.3e-05 
6e-05 -2.6e-05 2.6e-05 
0.000122 -2.8e-05 -3.4e-05 
6.1e-05 -2.7e-05 2.7e-05 
0.000125 -2.8e-05 -3.4e-05 
6.2e-05 -2.8e-05 2.7e-05 
0.000127 -2.9e-05 -3.5e-05 
6.3e-05 -2.8e-05 2.8e-05 
0.000129 -2.9e-05 -3.6e-05 
6.5e-05 -2.9e-05 2.9e-05 
0.000132 -3e-05 -3.6e-05 
6.6e-05 -2.9e-05 2.9e-05 
0.000134 -3e-05 -3.7e-05 
6.7e-05 -3e-05 3e-05 
0.000137 -3.1e-05 -3.8e-05 
6.8e-05 -3e-05 3e-05 
0.000139 -3.1e-05 -3.8e-05 
7e-05 -3.1e-05 3.1e-05 
0.000142 -3.2e-05 -3.9e-05 
7.1e-05 -3.1e-05 3.2e-05 
0.000144 -3.3e-05 -3.9e-05 
7.2e-05 -3.2e-05 3.2e-05 
0.000147 -3.3e-05 -4e-05 
7.3e-05 -3.3e-05 3.3e-05 
0.000149 -3.4e-05 -4.1e-05 
7.5e-05 -3.3e-05 3.3e-05 
0.000152 -3.4e-05 -4.1e-05 
7.6e-05 -3.4e-05 3.4e-05 
0.000154 -3.5e-05 -4.2e-05 
7.7e-05 -3.4e-05 3.5e-05 
0.000157 -3.5e-05 -4.2e-05 
7.8e-05 -3.5e-05 3.5e-05 
0.000159 -3.6e-05 -4.3e-05 
8e-05 -3.5e-05 3.6e-05 
0.000162 -3.6e-05 -4.4e-05 
8.1e-05 -3.6e-05 3.7e-05 
0.000164 -3.7e-05 -4.4e-05 
8.2e-05 -3.6e-05 3.7e-05 
0.000167 -3.8e-05 -4.5e-05 
8.3e-05 -3.7e-05 3.8e-05 
0.000169 -3.8e-05 -4.6e-05 
8.4e-05 -3.8e-05 3.8e-05 
0.000171 -3.9e-05 -4.6e-05 
8.6e-05 -3.8e-05 3.9e-05 
0.000174 -3.9e-05 -4.7e-05 
8.7e-05 -3.9e-05 4e-05 
0.000176 -4e-05 -4.7e-05 
8.8e-05 -3.9e-05 4e-05 
0.000179 -4e-05 -4.8e-05 
8.9e-05 -4e-05 4.1e-05 
0.000181 -4.1e-05 -4.9e-05 
9.1e-05 -4e-05 4.1e-05 
0.000184 -4.1e-05 -4.9e-05 
9.2e-05 -4.1e-05 4.2e-05 
0.000186 -4.2e-05 -5e-05 
9.3e-05 -4.1e-05 4.2e-05 
0.000189 -4.2e-05 -5.1e-05 
9.4e-05 -4.2e-05 4.3e-05 
0.000192 -4.3e-05 -5.3e-05 
9.6e-05 -4.2e-05 4.3e-05 
0.000194 -3.8e-05 -5.8e-05 
9.7e-05 -4.3e-05 4.4e-05 
0.000186 0.0 -8.5e-05 
9.2e-05 -3.8e-05 4.7e-05 
0.0 1e-06 -5e-06 
-0.0 3e-06 -6e-06 
2e-06 -0.0 -7e-06 
0.0 1e-06 -7e-06 
3e-06 -0.0 -8e-06 
0.0 -0.0 -6e-06 
4e-06 -1e-06 -9e-06 
0.0 -0.0 -5e-06 
5e-06 -1e-06 -1e-05 
0.0 -1e-06 -4e-06 
7e-06 -1e-06 -1e-05 
-0.0 -1e-06 -4e-06 
8e-06 -1e-06 -1.1e-05 
-0.0 -1e-06 -3e-06 
9e-06 -1e-06 -1.1e-05 
-0.0 -1e-06 -2e-06 
1e-05 -1e-06 -1.2e-05 
-0.0 -1e-06 -2e-06 
1.2e-05 -2e-06 -1.3e-05 
-0.0 -1e-06 -1e-06 
1.3e-05 -2e-06 -1.3e-05 
-0.0 -2e-06 -0.0 
1.4e-05 -2e-06 -1.4e-05 
-0.0 -2e-06 0.0 
1.5e-05 -2e-06 -1.4e-05 
-0.0 -2e-06 1e-06 
1.7e-05 -2e-06 -1.5e-05 
-0.0 -2e-06 1e-06 
1.8e-05 -3e-06 -1.6e-05 
-0.0 -2e-06 2e-06 
1.9e-05 -3e-06 -1.6e-05 
-0.0 -3e-06 3e-06 
2e-05 -3e-06 -1.7e-05 
-0.0 -3e-06 3e-06 
2.2e-05 -3e-06 -1.8e-05 
-0.0 -3e-06 4e-06 
2.3e-05 -3e-06 -1.8e-05 
-0.0 -3e-06 5e-06 
2.4e-05 -3e-06 -1.9e-05 
-0.0 -3e-06 5e-06 
2.5e-05 -4e-06 -1.9e-05 
-0.0 -3e-06 6e-06 
2.6e-05 -4e-06 -2e-05 
-0.0 -4e-06 6e-06 
2.8e-05 -4e-06 -2.1e-05 
-0.0 -4e-06 7e-06 
2.9e-05 -4e-06 -2.1e-05 
-0.0 -4e-06 8e-06 
3e-05 -4e-06 -2.2e-05 
-0.0 -4e-06 8e-06 
3.1e-05 -5e-06 -2.2e-05 
-0.0 -4e-06 9e-06 
3.3e-05 -5e-06 -2.3e-05 
-0.0 -5e-06 9e-06 
3.4e-05 -5e-06 -2.4e-05 
-0.0 -5e-06 1e-05 
3.5e-05 -5e-06 -2.4e-05 
-0.0 -5e-06 1.1e-05 
3.6e-05 -5e-06 -2.5e-05 
-0.0 -5e-06 1.1e-05 
3.8e-05 -6e-06 -2.6e-05 
-0.0 -5e-06 1.2e-05 
3.9e-05 -6e-06 -2.6e-05 
-0.0 -6e-06 1.3e-05 
4e-05 -6e-06 -2.7e-05 
-0.0 -6e-06 1.3e-05 
4.1e-05 -6e-06 -2.7e-05 
-0.0 -6e-06 1.4e-05 
4.3e-05 -6e-06 -2.8e-05 
-0.0 -6e-06 1.4e-05 
4.4e-05 -6e-06 -2.9e-05 
-0.0 -6e-06 1.5e-05 
4.5e-05 -7e-06 -2.9e-05 
-0.0 -6e-06 1.6e-05 
4.6e-05 -7e-06 -3e-05 
-0.0 -7e-06 1.6e-05 
4.7e-05 -7e-06 -3e-05 
-0.0 -7e-06 1.7e-05 
4.9e-05 -7e-06 -3.1e-05 
-0.0 -7e-06 1.7e-05 
5e-05 -7e-06 -3.2e-05 
-0.0 -7e-06 1.8e-05 
5.1e-05 -8e-06 -3.2e-05 
-0.0 -7e-06 1.9e-05 
5.2e-05 -8e-06 -3.3e-05 
-0.0 -8e-06 1.9e-05 
5.4e-05 -8e-06 -3.4e-05 
-0.0 -8e-06 2e-05 
5.5e-05 -8e-06 -3.4e-05 
-0.0 -8e-06 2.1e-05 
5.6e-05 -8e-06 -3.5e-05 
-0.0 -8e-06 2.1e-05 
5.7e-05 -8e-06 -3.5e-05 
-0.0 -8e-06 2.2e-05 
5.9e-05 -9e-06 -3.6e-05 
-0.0 -8e-06 2.2e-05 
6e-05 -9e-06 -3.7e-05 
-0.0 -9e-06 2.3e-05 
6.1e-05 -9e-06 -3.7e-05 
-0.0 -9e-06 2.4e-05 
6.2e-05 -9e-06 -3.8e-05 
-0.0 -9e-06 2.4e-05 
6.3e-05 -9e-06 -3.8e-05 
-0.0 -9e-06 2.5e-05 
6.5e-05 -1e-05 -3.9e-05 
-0.0 -9e-06 2.5e-05 
6.6e-05 -1e-05 -4e-05 
-0.0 -1e-05 2.6e-05 
6.7e-05 -1e-05 -4e-05 
-0.0 -1e-05 2.7e-05 
6.8e-05 -1e-05 -4.1e-05 
-0.0 -1e-05 2.7e-05 
7e-05 -1e-05 -4.2e-05 
-0.0 -1e-05 2.8e-05 
7.1e-05 -1.1e-05 -4.2e-05 
-0.0 -1e-05 2.9e-05 
7.2e-05 -1.1e-05 -4.3e-05 
-0.0 -1.1e-05 2.9e-05 
7.3e-05 -1.1e-05 -4.3e-05 
-0.0 -1.1e-05 3e-05 
7.5e-05 -1.1e-05 -4.4e-05 
-0.0 -1.1e-05 3e-05 
7.6e-05 -1.1e-05 -4.5e-05 
-0.0 -1.1e-05 3.1e-05 
7.7e-05 -1.1e-05 -4.5e-05 
-0.0 -1.1e-05 3.2e-05 
7.8e-05 -1.2e-05 -4.6e-05 
-0.0 -1.1e-05 3.2e-05 
8e-05 -1.2e-05 -4.7e-05 
-0.0 -1.2e-05 3.3e-05 
8.1e-05 -1.2e-05 -4.7e-05 
-0.0 -1.2e-05 3.4e-05 
8.2e-05 -1.2e-05 -4.8e-05 
-0.0 -1.2e-05 3.4e-05 
8.3e-05 -1.2e-05 -4.8e-05 
-0.0 -1.2e-05 3.5e-05 
8.4e-05 -1.3e-05 -4.9e-05 
-0.0 -1.2e-05 3.5e-05 
8.6e-05 -1.3e-05 -5e-05 
-0.0 -1.3e-05 3.6e-05 
8.7e-05 -1.3e-05 -5e-05 
-0.0 -1.3e-05 3.7e-05 
8.8e-05 -1.3e-05 -5.1e-05 
-0.0 -1.3e-05 3.7e-05 
8.9e-05 -1.3e-05 -5.1e-05 
-0.0 -1.3e-05 3.8e-05 
9.1e-05 -1.3e-05 -5.2e-05 
-0.0 -1.3e-05 3.8e-05 
9.2e-05 -1.3e-05 -5.3e-05 
-0.0 -1.3e-05 3.9e-05 
9.3e-05 -1.3e-05 -5.4e-05 
-0.0 -1.3e-05 3.9e-05 
9.4e-05 -1.3e-05 -5.5e-05 
-1e-06 -1.3e-05 4e-05 
9.6e-05 -1.4e-05 -5.7e-05 
-1e-06 -1.3e-05 4e-05 
9.7e-05 -1.2e-05 -5.7e-05 
-0.0 -1.4e-05 4.2e-05 
9.2e-05 0.0 -4.7e-05 
2e-06 -1.2e-05 5.6e-05 
-0.0 2e-06 -5e-06 
-1e-06 7e-06 -9e-06 
0.0 1e-06 -7e-06 
-2e-06 2e-06 -7e-06 
0.0 1e-06 -8e-06 
-3e-06 1e-06 -5e-06 
0.0 1e-06 -9e-06 
-4e-06 1e-06 -4e-06 
0.0 1e-06 -1e-05 
-6e-06 1e-06 -4e-06 
-0.0 1e-06 -1e-05 
-7e-06 1e-06 -3e-06 
-0.0 2e-06 -1.1e-05 
-8e-06 1e-06 -3e-06 
-0.0 2e-06 -1.2e-05 
-9e-06 2e-06 -2e-06 
-0.0 2e-06 -1.2e-05 
-1.1e-05 2e-06 -1e-06 
-0.0 2e-06 -1.3e-05 
-1.2e-05 2e-06 -1e-06 
-0.0 2e-06 -1.3e-05 
-1.3e-05 2e-06 -0.0 
-0.0 2e-06 -1.4e-05 
-1.4e-05 2e-06 0.0 
-0.0 3e-06 -1.5e-05 
-1.5e-05 2e-06 1e-06 
-0.0 3e-06 -1.5e-05 
-1.7e-05 3e-06 2e-06 
-0.0 3e-06 -1.6e-05 
-1.8e-05 3e-06 2e-06 
-0.0 3e-06 -1.6e-05 
-1.9e-05 3e-06 3e-06 
-0.0 3e-06 -1.7e-05 
-2e-05 3e-06 3e-06 
-0.0 4e-06 -1.8e-05 
-2.2e-05 3e-06 4e-06 
-0.0 4e-06 -1.8e-05 
-2.3e-05 4e-06 5e-06 
-0.0 4e-06 -1.9e-05 
-2.4e-05 4e-06 5e-06 
-0.0 4e-06 -2e-05 
-2.5e-05 4e-06 6e-06 
-0.0 4e-06 -2e-05 
-2.7e-05 4e-06 7e-06 
-0.0 4e-06 -2.1e-05 
-2.8e-05 4e-06 7e-06 
-0.0 5e-06 -2.1e-05 
-2.9e-05 4e-06 8e-06 
-0.0 5e-06 -2.2e-05 
-3e-05 5e-06 8e-06 
-0.0 5e-06 -2.3e-05 
-3.2e-05 5e-06 9e-06 
-0.0 5e-06 -2.3e-05 
-3.3e-05 5e-06 1e-05 
-0.0 5e-06 -2.4e-05 
-3.4e-05 5e-06 1e-05 
-0.0 6e-06 -2.4e-05 
-3.5e-05 5e-06 1.1e-05 
-0.0 6e-06 -2.5e-05 
-3.6e-05 6e-06 1.1e-05 
-0.0 6e-06 -2.6e-05 
-3.8e-05 6e-06 1.2e-05 
-0.0 6e-06 -2.6e-05 
-3.9e-05 6e-06 1.3e-05 
-0.0 6e-06 -2.7e-05 
-4e-05 6e-06 1.3e-05 
-0.0 7e-06 -2.8e-05 
-4.1e-05 6e-06 1.4e-05 
-0.0 7e-06 -2.8e-05 
-4.3e-05 7e-06 1.5e-05 
-0.0 7e-06 -2.9e-05 
-4.4e-05 7e-06 1.5e-05 
-0.0 7e-06 -2.9e-05 
-4.5e-05 7e-06 1.6e-05 
-0.0 7e-06 -3e-05 
-4.6e-05 7e-06 1.6e-05 
-0.0 7e-06 -3.1e-05 
-4.8e-05 7e-06 1.7e-05 
-0.0 8e-06 -3.1e-05 
-4.9e-05 7e-06 1.8e-05 
-0.0 8e-06 -3.2e-05 
-5e-05 8e-06 1.8e-05 
-0.0 8e-06 -3.3e-05 
-5.1e-05 8e-06 1.9e-05 
-0.0 8e-06 -3.3e-05 
-5.3e-05 8e-06 2e-05 
-0.0 8e-06 -3.4e-05 
-5.4e-05 8e-06 2e-05 
-0.0 9e-06 -3.4e-05 
-5.5e-05 8e-06 2.1e-05 
-0.0 9e-06 -3.5e-05 
-5.6e-05 9e-06 2.1e-05 
-0.0 9e-06 -3.6e-05 
-5.7e-05 9e-06 2.2e-05 
-0.0 9e-06 -3.6e-05 
-5.9e-05 9e-06 2.3e-05 
-0.0 9e-06 -3.7e-05 
-6e-05 9e-06 2.3e-05 
-0.0 9e-06 -3.7e-05 
-6.1e-05 9e-06 2.4e-05 
-0.0 1e-05 -3.8e-05 
-6.2e-05 9e-06 2.4e-05 
-0.0 1e-05 -3.9e-05 
-6.4e-05 1e-05 2.5e-05 
-0.0 1e-05 -3.9e-05 
-6.5e-05 1e-05 2.6e-05 
-0.0 1e-05 -4e-05 
-6.6e-05 1e-05 2.6e-05 
-0.0 1e-05 -4.1e-05 
-6.7e-05 1e-05 2.7e-05 
-0.0 1.1e-05 -4.1e-05 
-6.9e-05 1e-05 2.8e-05 
-0.0 1.1e-05 -4.2e-05 
-7e-05 1.1e-05 2.8e-05 
-0.0 1.1e-05 -4.2e-05 
-7.1e-05 1.1e-05 2.9e-05 
-0.0 1.1e-05 -4.3e-05 
-7.2e-05 1.1e-05 2.9e-05 
-0.0 1.1e-05 -4.4e-05 
-7.3e-05 1.1e-05 3e-05 
-0.0 1.2e-05 -4.4e-05 
-7.5e-05 1.1e-05 3.1e-05 
-0.0 1.2e-05 -4.5e-05 
-7.6e-05 1.2e-05 3.1e-05 
-0.0 1.2e-05 -4.5e-05 
-7.7e-05 1.2e-05 3.2e-05 
-0.0 1.2e-05 -4.6e-05 
-7.8e-05 1.2e-05 3.2e-05 
-0.0 1.2e-05 -4.7e-05 
-8e-05 1.2e-05 3.3e-05 
-0.0 1.2e-05 -4.7e-05 
-8.1e-05 1.2e-05 3.4e-05 
-0.0 1.3e-05 -4.8e-05 
-8.2e-05 1.2e-05 3.4e-05 
-0.0 1.3e-05 -4.9e-05 
-8.3e-05 1.3e-05 3.5e-05 
-0.0 1.3e-05 -4.9e-05 
-8.5e-05 1.3e-05 3.6e-05 
-0.0 1.3e-05 -5e-05 
-8.6e-05 1.3e-05 3.6e-05 
-0.0 1.3e-05 -5e-05 
-8.7e-05 1.3e-05 3.7e-05 
-0.0 1.4e-05 -5.1e-05 
-8.8e-05 1.3e-05 3.7e-05 
-0.0 1.4e-05 -5.2e-05 
-9e-05 1.4e-05 3.8e-05 
-0.0 1.4e-05 -5.2e-05 
-9.1e-05 1.4e-05 3.9e-05 
-0.0 1.4e-05 -5.3e-05 
-9.2e-05 1.4e-05 3.9e-05 
-0.0 1.5e-05 -5.3e-05 
-9.3e-05 1.4e-05 4e-05 
-1e-06 1.5e-05 -5.4e-05 
-9.5e-05 1.5e-05 4.1e-05 
-1e-06 1.5e-05 -5.5e-05 
-9.7e-05 1.5e-05 4.1e-05 
-0.0 1e-05 -5.4e-05 
-9.9e-05 1.5e-05 3.9e-05 
2e-06 0.0 -3.5e-05 
-8.9e-05 1e-05 4.6e-05 
-1e-06 2e-06 -4e-06 
-7e-06 1.4e-05 -9e-06 
-2e-06 1e-06 -4e-06 
-6e-06 2e-06 -1e-06 
-3e-06 2e-06 -5e-06 
-7e-06 1e-06 -0.0 
-4e-06 2e-06 -6e-06 
-9e-06 2e-06 -0.0 
-6e-06 3e-06 -7e-06 
-1.1e-05 2e-06 -0.0 
-7e-06 4e-06 -7e-06 
-1.4e-05 3e-06 0.0 
-8e-06 4e-06 -8e-06 
-1.6e-05 4e-06 1e-06 
-9e-06 5e-06 -8e-06 
-1.9e-05 4e-06 1e-06 
-1.1e-05 5e-06 -9e-06 
-2.1e-05 5e-06 2e-06 
-1.2e-05 6e-06 -1e-05 
-2.4e-05 5e-06 3e-06 
-1.3e-05 6e-06 -1e-05 
-2.6e-05 6e-06 3e-06 
-1.4e-05 7e-06 -1.1e-05 
-2.8e-05 6e-06 4e-06 
-1.5e-05 7e-06 -1.2e-05 
-3.1e-05 7e-06 4e-06 
-1.7e-05 8e-06 -1.2e-05 
-3.3e-05 7e-06 5e-06 
-1.8e-05 9e-06 -1.3e-05 
-3.6e-05 8e-06 6e-06 
-1.9e-05 9e-06 -1.3e-05 
-3.8e-05 9e-06 6e-06 
-2e-05 1e-05 -1.4e-05 
-4.1e-05 9e-06 7e-06 
-2.2e-05 1e-05 -1.5e-05 
-4.3e-05 1e-05 7e-06 
-2.3e-05 1.1e-05 -1.5e-05 
-4.6e-05 1e-05 8e-06 
-2.4e-05 1.1e-05 -1.6e-05 
-4.8e-05 1.1e-05 9e-06 
-2.5e-05 1.2e-05 -1.7e-05 
-5.1e-05 1.1e-05 9e-06 
-2.7e-05 1.2e-05 -1.7e-05 
-5.3e-05 1.2e-05 1e-05 
-2.8e-05 1.3e-05 -1.8e-05 
-5.6e-05 1.2e-05 1.1e-05 
-2.9e-05 1.4e-05 -1.8e-05 
-5.8e-05 1.3e-05 1.1e-05 
-3e-05 1.4e-05 -1.9e-05 
-6.1e-05 1.4e-05 1.2e-05 
-3.2e-05 1.5e-05 -2e-05 
-6.3e-05 1.4e-05 1.2e-05 
-3.3e-05 1.5e-05 -2e-05 
-6.5e-05 1.5e-05 1.3e-05 
-3.4e-05 1.6e-05 -2.1e-05 
-6.8e-05 1.5e-05 1.4e-05 
-3.5e-05 1.6e-05 -2.1e-05 
-7e-05 1.6e-05 1.4e-05 
-3.6e-05 1.7e-05 -2.2e-05 
-7.3e-05 1.6e-05 1.5e-05 
-3.8e-05 1.7e-05 -2.3e-05 
-7.5e-05 1.7e-05 1.5e-05 
-3.9e-05 1.8e-05 -2.3e-05 
-7.8e-05 1.7e-05 1.6e-05 
-4e-05 1.9e-05 -2.4e-05 
-8e-05 1.8e-05 1.7e-05 
-4.1e-05 1.9e-05 -2.5e-05 
-8.3e-05 1.9e-05 1.7e-05 
-4.3e-05 2e-05 -2.5e-05 
-8.5e-05 1.9e-05 1.8e-05 
-4.4e-05 2e-05 -2.6e-05 
-8.8e-05 2e-05 1.9e-05 
-4.5e-05 2.1e-05 -2.6e-05 
-9e-05 2e-05 1.9e-05 
-4.6e-05 2.1e-05 -2.7e-05 
-9.3e-05 2.1e-05 2e-05 
-4.8e-05 2.2e-05 -2.8e-05 
-9.5e-05 2.1e-05 2e-05 
-4.9e-05 2.2e-05 -2.8e-05 
-9.8e-05 2.2e-05 2.1e-05 
-5e-05 2.3e-05 -2.9e-05 
-0.0001 2.2e-05 2.2e-05 
-5.1e-05 2.4e-05 -2.9e-05 
-0.000102 2.3e-05 2.2e-05 
-5.3e-05 2.4e-05 -3e-05 
-0.000105 2.4e-05 2.3e-05 
-5.4e-05 2.5e-05 -3.1e-05 
-0.000107 2.4e-05 2.4e-05 
-5.5e-05 2.5e-05 -3.1e-05 
-0.00011 2.5e-05 2.4e-05 
-5.6e-05 2.6e-05 -3.2e-05 
-0.000112 2.5e-05 2.5e-05 
-5.7e-05 2.6e-05 -3.3e-05 
-0.000115 2.6e-05 2.5e-05 
-5.9e-05 2.7e-05 -3.3e-05 
-0.000117 2.6e-05 2.6e-05 
-6e-05 2.7e-05 -3.4e-05 
-0.00012 2.7e-05 2.7e-05 
-6.1e-05 2.8e-05 -3.4e-05 
-0.000122 2.7e-05 2.7e-05 
-6.2e-05 2.9e-05 -3.5e-05 
-0.000125 2.8e-05 2.8e-05 
-6.4e-05 2.9e-05 -3.6e-05 
-0.000127 2.9e-05 2.8e-05 
-6.5e-05 3e-05 -3.6e-05 
-0.00013 2.9e-05 2.9e-05 
-6.6e-05 3e-05 -3.7e-05 
-0.000132 3e-05 3e-05 
-6.7e-05 3.1e-05 -3.7e-05 
-0.000135 3e-05 3e-05 
-6.9e-05 3.1e-05 -3.8e-05 
-0.000137 3.1e-05 3.1e-05 
-7e-05 3.2e-05 -3.9e-05 
-0.000139 3.1e-05 3.2e-05 
-7.1e-05 3.2e-05 -3.9e-05 
-0.000142 3.2e-05 3.2e-05 
-7.2e-05 3.3e-05 -4e-05 
-0.000144 3.2e-05 3.3e-05 
-7.3e-05 3.4e-05 -4.1e-05 
-0.000147 3.3e-05 3.3e-05 
-7.5e-05 3.4e-05 -4.1e-05 
-0.000149 3.4e-05 3.4e-05 
-7.6e-05 3.5e-05 -4.2e-05 
-0.000152 3.4e-05 3.5e-05 
-7.7e-05 3.5e-05 -4.2e-05 
-0.000154 3.5e-05 3.5e-05 
-7.8e-05 3.6e-05 -4.3e-05 
-0.000157 3.5e-05 3.6e-05 
-8e-05 3.6e-05 -4.4e-05 
-0.000159 3.6e-05 3.6e-05 
-8.1e-05 3.7e-05 -4.4e-05 
-0.000162 3.6e-05 3.7e-05 
-8.2e-05 3.7e-05 -4.5e-05 
-0.000164 3.7e-05 3.8e-05 
-8.3e-05 3.8e-05 -4.6e-05 
-0.000167 3.7e-05 3.8e-05 
-8.5e-05 3.9e-05 -4.6e-05 
-0.000169 3.8e-05 3.9e-05 
-8.6e-05 3.9e-05 -4.7e-05 
-0.000172 3.9e-05 4e-05 
-8.7e-05 4e-05 -4.7e-05 
-0.000174 3.9e-05 4e-05 
-8.8e-05 4e-05 -4.8e-05 
-0.000177 4e-05 4.1e-05 
-9e-05 4.1e-05 -4.9e-05 
-0.000179 4e-05 4.1e-05 
-9.1e-05 4.1e-05 -4.9e-05 
-0.000181 4.1e-05 4.2e-05 
-9.2e-05 4.2e-05 -4.9e-05 
-0.000184 4.1e-05 4.3e-05 
-9.3e-05 4.2e-05 -5e-05 
-0.000186 4.2e-05 4.4e-05 
-9.5e-05 4.3e-05 -4.9e-05 
-0.000188 4.2e-05 4.5e-05 
-9.7e-05 4.3e-05 -4.7e-05 
-0.000189 4.3e-05 4.6e-05 
-9.9e-05 4e-05 -4.3e-05 
-0.00019 4.3e-05 4.5e-05 
-8.9e-05 0.0 -4.5e-05 
-0.000196 4e-05 2.2e-05 
Stress 3 640 double
7.978025 2.522615 -7.102853 
6.648428 7.102853 -7.978025 
29.119694 1.655117 -15.540005 
19.284432 5.914537 -14.038816 
56.761827 3.339869 -19.379895 
30.885215 2.184774 -12.102128 
84.676 5.672426 -21.729477 
42.327973 -0.990287 -8.534278 
111.580487 7.99839 -23.829906 
53.861257 -3.571997 -5.17501 
137.662252 10.204928 -25.999573 
65.490109 -5.828723 -2.251859 
163.286291 12.321599 -28.26344 
77.175619 -7.941062 0.375534 
188.698832 14.389865 -30.587165 
88.888047 -9.997874 2.850899 
214.026264 16.436237 -32.940699 
100.611514 -12.036331 5.259733 
239.323861 18.473967 -35.306975 
112.338934 -14.069961 7.643102 
264.61277 20.508732 -37.678015 
124.067553 -16.102926 10.018066 
289.899962 22.542664 -40.05058 
135.796439 -18.136167 12.390823 
315.187265 24.576448 -42.42352 
147.525336 -20.169724 14.763277 
340.474928 26.610255 -44.796496 
159.2542 -22.203471 17.135857 
365.762843 28.644104 -47.16944 
170.983037 -24.237312 19.508581 
391.050889 30.677979 -49.542352 
182.71186 -26.271191 21.881393 
416.338993 32.711868 -51.915247 
194.440677 -28.305084 24.254248 
441.62712 34.745764 -54.288134 
206.169492 -30.338982 26.627121 
466.915253 36.779661 -56.661017 
217.898305 -32.372881 29.0 
492.203389 38.813559 -59.033898 
229.627119 -34.406779 31.372881 
517.491525 40.847458 -61.40678 
241.355932 -36.440678 33.745762 
542.779661 42.881356 -63.779661 
253.084746 -38.474576 36.118644 
568.067797 44.915254 -66.152542 
264.813559 -40.508475 38.491525 
593.355932 46.949153 -68.525424 
276.542373 -42.542373 40.864407 
618.644068 48.983051 -70.898305 
288.271186 -44.576271 43.237288 
643.932204 51.016949 -73.271186 
300.0 -46.610169 45.610169 
669.220339 53.050847 -75.644068 
311.728814 -48.644068 47.983051 
694.508475 55.084746 -78.016949 
323.457627 -50.677966 50.355932 
719.79661 57.118644 -80.389831 
335.186441 -52.711864 52.728814 
745.084746 59.152542 -82.762712 
346.915254 -54.745763 55.101695 
770.372882 61.186441 -85.135593 
358.644068 -56.779661 57.474576 
795.661017 63.220339 -87.508475 
370.372881 -58.813559 59.847458 
820.949153 65.254237 -89.881356 
382.101695 -60.847458 62.220339 
846.237288 67.288136 -92.254237 
393.830509 -62.881356 64.59322 
871.525424 69.322034 -94.627119 
405.559322 -64.915254 66.966102 
896.81356 71.355932 -97.0 
417.288136 -66.949153 69.338983 
922.101695 73.389831 -99.372881 
429.016949 -68.983051 71.711864 
947.389831 75.423729 -101.745763 
440.745763 -71.016949 74.084746 
972.677966 77.457627 -104.118644 
452.474576 -73.050847 76.457627 
997.966102 79.491525 -106.491525 
464.20339 -75.084746 78.830508 
1023.254238 81.525424 -108.864407 
475.932204 -77.118644 81.20339 
1048.542373 83.559322 -111.237288 
487.661017 -79.152542 83.576271 
1073.830509 85.59322 -113.61017 
499.389831 -81.186441 85.949153 
1099.118644 87.627119 -115.983051 
511.118644 -83.220339 88.322034 
1124.40678 89.661017 -118.355932 
522.847458 -85.254237 90.694915 
1149.694916 91.694915 -120.728814 
534.576271 -87.288136 93.067797 
1174.983051 93.728814 -123.101695 
546.305085 -89.322034 95.440678 
1200.271187 95.762712 -125.474576 
558.033898 -91.355932 97.813559 
1225.559322 97.79661 -127.847458 
569.762712 -93.389831 100.186441 
1250.847458 99.830509 -130.220339 
581.491526 -95.423729 102.559322 
1276.135594 101.864407 -132.59322 
593.220339 -97.457627 104.932203 
1301.423729 103.898305 -134.966102 
604.949153 -99.491525 107.305085 
1326.711865 105.932203 -137.338983 
616.677966 -101.525424 109.677966 
1352.0 107.966102 -139.711864 
628.40678 -103.559322 112.050847 
1377.288136 110.0 -142.084746 
640.135593 -105.59322 114.423729 
1402.576272 112.033898 -144.457627 
651.864407 -107.627119 116.79661 
1427.864407 114.067797 -146.830509 
663.593221 -109.661017 119.169492 
1453.152543 116.101695 -149.20339 
675.322034 -111.694915 121.542373 
1478.440679 118.135594 -151.576272 
687.050847 -113.728813 123.915254 
1503.728816 120.169493 -153.949155 
698.77966 -115.762712 126.288135 
1529.016955 122.203393 -156.322038 
710.508473 -117.79661 128.661016 
1554.305097 124.237292 -158.694923 
722.237284 -119.830508 131.033896 
1579.593242 126.271184 -161.067806 
733.966095 -121.864409 133.406778 
1604.881381 128.305051 -163.440674 
745.694909 -123.898316 135.779667 
1630.169476 130.338839 -165.813485 
757.423746 -125.93224 138.152579 
1655.4574 132.372418 -168.186116 
769.152657 -127.966207 140.52556 
1680.744803 134.405506 -170.558268 
780.881785 -130.000266 142.898714 
1706.030818 136.437574 -172.929281 
792.611471 -132.034493 145.272253 
1731.313568 138.467858 -175.297913 
804.342431 -134.068942 147.646531 
1756.589581 140.495901 -177.662351 
816.075972 -136.103421 150.0219 
1781.854025 142.523756 -180.021476 
827.813991 -138.136776 152.397907 
1807.104959 144.562161 -182.380188 
839.558024 -140.165044 154.770542 
1832.360392 146.643578 -184.764813 
851.30597 -142.177536 157.124755 
1857.707447 148.839683 -187.257695 
863.046145 -144.150696 159.417758 
1883.414275 151.255885 -190.052595 
874.759226 -146.044783 161.550867 
1910.114643 153.944286 -193.48549 
886.484687 -147.822991 163.352227 
1938.897677 157.104693 -197.923433 
898.612552 -149.506342 164.702456 
1970.614287 166.14059 -204.116905 
912.177965 -150.911221 166.206823 
2005.303664 220.171427 -221.656823 
921.476744 -148.600673 169.427528 
2046.846664 614.053999 -327.438044 
890.09822 -114.390206 180.113823 
8.345294 12.759072 -17.745273 
7.690834 32.82615 -22.971747 
19.141066 5.436651 -28.302934 
6.8035 12.296533 -26.828173 
31.8146 5.282722 -32.524332 
3.312057 0.687949 -23.613516 
44.828138 7.343595 -34.891085 
0.424734 -4.134238 -19.846137 
57.86449 9.772114 -36.94921 
-1.464872 -6.544308 -16.583038 
70.869144 12.101391 -39.084232 
-2.677808 -8.390576 -13.766062 
83.846175 14.294127 -41.328683 
-3.537046 -10.220466 -11.202348 
96.807356 16.399822 -43.643357 
-4.237892 -12.131093 -8.757466 
109.76103 18.462056 -45.993221 
-4.876244 -14.105258 -6.361216 
122.711621 20.505662 -48.358208 
-5.493028 -16.114161 -3.982388 
135.661115 22.542281 -50.728877 
-6.103641 -18.138917 -1.608813 
148.610286 24.576657 -53.101373 
-6.713082 -20.169978 0.763628 
161.559396 26.610474 -55.474323 
-7.322634 -22.20322 3.136064 
174.508512 28.644235 -57.847319 
-7.932458 -24.237082 5.508681 
187.457643 30.678042 -60.220276 
-8.542467 -26.271059 7.881435 
200.406786 32.711895 -62.593195 
-9.152572 -28.305022 10.254264 
213.355934 34.745773 -64.966093 
-9.762719 -30.338957 12.627126 
226.305085 36.779664 -67.338981 
-10.372882 -32.372872 15.000001 
239.254237 38.81356 -69.711864 
-10.98305 -34.406777 17.372881 
252.20339 40.847458 -72.084746 
-11.59322 -36.440677 19.745762 
265.152542 42.881356 -74.457627 
-12.203389 -38.474576 22.118644 
278.101695 44.915254 -76.830509 
-12.813559 -40.508475 24.491525 
291.050847 46.949153 -79.20339 
-13.423729 -42.542373 26.864407 
304.0 48.983051 -81.576271 
-14.033898 -44.576271 29.237288 
316.949153 51.016949 -83.949153 
-14.644068 -46.61017 31.610169 
329.898305 53.050847 -86.322034 
-15.254237 -48.644068 33.983051 
342.847458 55.084746 -88.694915 
-15.864407 -50.677966 36.355932 
355.79661 57.118644 -91.067797 
-16.474576 -52.711864 38.728814 
368.745763 59.152542 -93.440678 
-17.084746 -54.745763 41.101695 
381.694915 61.186441 -95.813559 
-17.694915 -56.779661 43.474576 
394.644068 63.220339 -98.186441 
-18.305085 -58.813559 45.847458 
407.59322 65.254237 -100.559322 
-18.915254 -60.847458 48.220339 
420.542373 67.288136 -102.932203 
-19.525424 -62.881356 50.59322 
433.491526 69.322034 -105.305085 
-20.135593 -64.915254 52.966102 
446.440678 71.355932 -107.677966 
-20.745763 -66.949153 55.338983 
459.389831 73.389831 -110.050847 
-21.355932 -68.983051 57.711864 
472.338983 75.423729 -112.423729 
-21.966102 -71.016949 60.084746 
485.288136 77.457627 -114.79661 
-22.576271 -73.050847 62.457627 
498.237288 79.491525 -117.169492 
-23.186441 -75.084746 64.830508 
511.186441 81.525424 -119.542373 
-23.79661 -77.118644 67.20339 
524.135593 83.559322 -121.915254 
-24.40678 -79.152542 69.576271 
537.084746 85.59322 -124.288136 
-25.016949 -81.186441 71.949153 
550.033898 87.627119 -126.661017 
-25.627119 -83.220339 74.322034 
562.983051 89.661017 -129.033898 
-26.237288 -85.254237 76.694915 
575.932204 91.694915 -131.40678 
-26.847458 -87.288136 79.067797 
588.881356 93.728814 -133.779661 
-27.457627 -89.322034 81.440678 
601.830509 95.762712 -136.152542 
-28.067797 -91.355932 83.813559 
614.779661 97.79661 -138.525424 
-28.677966 -93.389831 86.186441 
627.728814 99.830509 -140.898305 
-29.288136 -95.423729 88.559322 
640.677966 101.864407 -143.271186 
-29.898305 -97.457627 90.932203 
653.627119 103.898305 -145.644068 
-30.508475 -99.491525 93.305085 
666.576271 105.932203 -148.016949 
-31.118644 -101.525424 95.677966 
679.525424 107.966102 -150.389831 
-31.728814 -103.559322 98.050847 
692.474577 110.0 -152.762712 
-32.338983 -105.59322 100.423729 
705.423729 112.033898 -155.135593 
-32.949153 -107.627119 102.79661 
718.372882 114.067797 -157.508475 
-33.559322 -109.661017 105.169492 
731.322034 116.101695 -159.881356 
-34.169492 -111.694915 107.542373 
744.271187 118.135594 -162.254238 
-34.779661 -113.728813 109.915254 
757.220339 120.169493 -164.627119 
-35.389831 -115.762712 112.288136 
770.169491 122.203391 -167.0 
-36.000001 -117.79661 114.661017 
783.118642 124.237289 -169.372881 
-36.610171 -119.830507 117.033898 
796.067791 126.271181 -171.74576 
-37.220341 -121.864406 119.40678 
809.016933 128.305054 -174.118631 
-37.830507 -123.898308 121.779662 
821.966066 130.338872 -176.491482 
-38.440655 -125.932223 124.152545 
834.915184 132.372554 -178.864283 
-39.05075 -127.966173 126.525433 
847.864299 134.405933 -181.236975 
-39.6607 -130.000211 128.898333 
860.813486 136.438736 -183.609465 
-40.270297 -132.034446 131.271257 
873.763028 138.470695 -185.981676 
-40.879136 -134.069051 133.644222 
886.713774 140.502201 -188.353828 
-41.486586 -136.104189 136.017221 
899.667967 142.536564 -190.727379 
-42.092166 -138.139581 138.39008 
912.630918 144.586313 -193.107786 
-42.697376 -140.173039 140.761965 
925.613976 146.688128 -195.511512 
-43.311828 -142.19651 143.129761 
938.638886 148.932185 -197.982108 
-43.970181 -144.187119 145.483223 
951.742556 151.504008 -200.623146 
-44.772622 -146.091268 147.791207 
964.980901 154.694135 -203.656504 
-45.967001 -147.808859 149.964891 
978.440314 158.695765 -207.497801 
-48.070562 -149.221304 151.771261 
992.307668 162.810713 -212.718643 
-51.836265 -150.387209 152.719549 
1007.008278 165.189821 -218.979308 
-56.597849 -151.860943 152.736009 
1021.442709 184.619212 -218.203149 
-49.113685 -151.646768 160.556721 
1015.840969 304.752291 -180.73817 
-17.252211 -126.989264 213.640412 
4.234883 21.306315 -19.368262 
8.054935 75.166159 -34.897464 
5.66477 8.50077 -28.276337 
-11.740196 16.513791 -25.747737 
5.371647 7.553247 -31.823438 
-29.483548 -2.043726 -19.855547 
4.502567 9.458537 -34.558417 
-44.596384 -7.437162 -16.790627 
4.050135 11.839049 -37.087055 
-58.338263 -9.393712 -14.573666 
4.084073 14.149027 -39.529676 
-71.519582 -10.831866 -12.449221 
4.429157 16.333545 -41.932031 
-84.510885 -12.42946 -10.242749 
4.932183 18.435823 -44.316395 
-97.452756 -14.231029 -7.956298 
5.504345 20.496705 -46.693338 
-110.389113 -16.160566 -5.621988 
6.103162 22.539807 -49.067485 
-123.329642 -18.153491 -3.264303 
6.710909 24.576252 -51.440685 
-136.274317 -20.173437 -0.89667 
7.321083 26.610572 -53.813611 
-149.221475 -22.203463 1.474703 
7.931644 28.644375 -56.186476 
-162.169843 -24.236705 3.847292 
8.542106 30.678132 -58.55934 
-175.118726 -26.270736 6.220195 
9.152432 32.71194 -60.932211 
-188.067802 -28.30484 8.593139 
9.762672 34.745793 -63.305087 
-201.01694 -30.338872 10.966064 
10.372869 36.779671 -65.677967 
-213.966094 -32.372837 13.338968 
10.983048 38.813562 -68.050848 
-226.91525 -34.406764 15.711859 
11.59322 40.847458 -70.423729 
-239.864405 -36.440674 18.084744 
12.20339 42.881356 -72.79661 
-252.813559 -38.474575 20.457627 
12.81356 44.915254 -75.169492 
-265.762712 -40.508475 22.830508 
13.423729 46.949152 -77.542373 
-278.711864 -42.542373 25.20339 
14.033898 48.983051 -79.915254 
-291.661017 -44.576271 27.576271 
14.644068 51.016949 -82.288136 
-304.61017 -46.61017 29.949153 
15.254237 53.050847 -84.661017 
-317.559322 -48.644068 32.322034 
15.864407 55.084746 -87.033898 
-330.508475 -50.677966 34.694915 
16.474576 57.118644 -89.40678 
-343.457627 -52.711864 37.067797 
17.084746 59.152542 -91.779661 
-356.40678 -54.745763 39.440678 
17.694915 61.186441 -94.152542 
-369.355932 -56.779661 41.813559 
18.305085 63.220339 -96.525424 
-382.305085 -58.813559 44.186441 
18.915254 65.254237 -98.898305 
-395.254237 -60.847458 46.559322 
19.525424 67.288136 -101.271186 
-408.20339 -62.881356 48.932203 
20.135593 69.322034 -103.644068 
-421.152542 -64.915254 51.305085 
20.745763 71.355932 -106.016949 
-434.101695 -66.949153 53.677966 
21.355932 73.389831 -108.389831 
-447.050848 -68.983051 56.050847 
21.966102 75.423729 -110.762712 
-460.0 -71.016949 58.423729 
22.576271 77.457627 -113.135593 
-472.949153 -73.050847 60.79661 
23.186441 79.491525 -115.508475 
-485.898305 -75.084746 63.169492 
23.79661 81.525424 -117.881356 
-498.847458 -77.118644 65.542373 
24.40678 83.559322 -120.254237 
-511.79661 -79.152542 67.915254 
25.016949 85.59322 -122.627119 
-524.745763 -81.186441 70.288136 
25.627119 87.627119 -125.0 
-537.694915 -83.220339 72.661017 
26.237288 89.661017 -127.372881 
-550.644068 -85.254237 75.033898 
26.847458 91.694915 -129.745763 
-563.593221 -87.288136 77.40678 
27.457627 93.728814 -132.118644 
-576.542373 -89.322034 79.779661 
28.067797 95.762712 -134.491525 
-589.491526 -91.355932 82.152542 
28.677966 97.79661 -136.864407 
-602.440678 -93.389831 84.525424 
29.288136 99.830509 -139.237288 
-615.389831 -95.423729 86.898305 
29.898305 101.864407 -141.61017 
-628.338983 -97.457627 89.271186 
30.508475 103.898305 -143.983051 
-641.288136 -99.491525 91.644068 
31.118644 105.932203 -146.355932 
-654.237288 -101.525424 94.016949 
31.728814 107.966102 -148.728814 
-667.186441 -103.559322 96.389831 
32.338983 110.0 -151.101695 
-680.135593 -105.59322 98.762712 
32.949153 112.033898 -153.474576 
-693.084746 -107.627119 101.135593 
33.559322 114.067797 -155.847458 
-706.033899 -109.661017 103.508475 
34.169492 116.101695 -158.220339 
-718.983051 -111.694915 105.881356 
34.779661 118.135593 -160.59322 
-731.932204 -113.728814 108.254237 
35.38983 120.169492 -162.966102 
-744.881356 -115.762712 110.627119 
36.0 122.20339 -165.338983 
-757.830509 -117.79661 113.0 
36.610168 124.237289 -167.711864 
-770.779661 -119.830508 115.372882 
37.220337 126.271186 -170.084744 
-783.728814 -121.864406 117.745764 
37.830505 128.305081 -172.457625 
-796.677967 -123.898305 120.118644 
38.440675 130.338964 -174.830508 
-809.627121 -125.932207 122.491522 
39.050857 132.372818 -177.203402 
-822.576279 -127.966122 124.864388 
39.661084 134.406607 -179.576336 
-835.52545 -130.000074 127.237222 
40.271443 136.440268 -181.949385 
-848.474655 -132.034114 129.609975 
40.882161 138.473748 -184.32274 
-861.423949 -134.06835 131.982546 
41.493735 140.507185 -186.696827 
-874.373468 -136.102941 134.354761 
42.107148 142.541588 -189.072509 
-887.323537 -138.137996 136.726409 
42.723963 144.580849 -191.4513 
-900.274936 -140.173037 139.097526 
43.345643 146.637025 -193.835291 
-913.229597 -142.205219 141.469417 
43.969921 148.742651 -196.225888 
-926.192512 -144.224421 143.84744 
44.578703 150.975826 -198.619487 
-939.177266 -146.201505 146.247171 
45.105326 153.501893 -200.997869 
-952.222424 -148.064512 148.704404 
45.359349 156.61231 -203.316644 
-965.439829 -149.661653 151.279971 
44.88382 160.626635 -205.521322 
-979.152251 -150.74117 154.010491 
42.769708 164.966037 -207.673665 
-994.251705 -151.114023 156.622885 
37.74653 162.620322 -209.99605 
-1012.818223 -151.710342 157.475793 
30.029998 112.165507 -207.830491 
-1034.533011 -159.06354 151.805832 
22.906119 6.871836 -133.886785 
-949.06488 -181.562957 178.530159 
-7.834538 22.201247 -14.818516 
-35.117861 124.882139 -35.117861 
-13.557006 10.457756 -16.486113 
-54.716261 8.13673 -4.779884 
-25.805163 10.217557 -19.046882 
-72.856636 -7.332133 -1.654262 
-38.761433 12.012675 -22.151902 
-93.401595 -10.061372 -1.498077 
-51.270668 14.164937 -25.073048 
-116.282565 -11.243665 -0.729067 
-63.374469 16.318512 -27.741269 
-140.53372 -12.613978 0.821892 
-75.255406 18.422136 -30.247366 
-165.433906 -14.29932 2.841084 
-87.036779 20.488892 -32.6725 
-190.598991 -16.180939 5.082281 
-98.780095 22.536161 -35.06306 
-215.857702 -18.157385 7.413789 
-110.511161 24.574779 -37.440758 
-241.143747 -20.172935 9.777015 
-122.239269 26.610056 -39.814391 
-266.435119 -22.202408 12.149385 
-133.967168 28.644226 -42.187056 
-291.726045 -24.235976 14.523465 
-145.695401 30.678104 -44.559651 
-317.015762 -26.270353 16.897339 
-157.423923 32.711943 -46.932352 
-342.304639 -28.304668 19.270775 
-169.15261 34.745799 -49.305143 
-367.593076 -30.338803 21.643914 
-180.881376 36.779676 -51.677986 
-392.88132 -32.372813 24.0169 
-192.610173 38.813565 -54.050853 
-418.169487 -34.406758 26.389818 
-204.338983 40.847459 -56.42373 
-443.45763 -36.440672 28.762711 
-216.067796 42.881356 -58.79661 
-468.745766 -38.474576 31.135594 
-227.79661 44.915254 -61.169491 
-494.0339 -40.508475 33.508476 
-239.525423 46.949152 -63.542373 
-519.322035 -42.542373 35.881356 
-251.254237 48.983051 -65.915254 
-544.61017 -44.576271 38.254238 
-262.983051 51.016949 -68.288136 
-569.898305 -46.61017 40.627119 
-274.711864 53.050847 -70.661017 
-595.186441 -48.644068 43.0 
-286.440678 55.084746 -73.033898 
-620.474576 -50.677966 45.372881 
-298.169492 57.118644 -75.40678 
-645.762712 -52.711864 47.745763 
-309.898305 59.152542 -77.779661 
-671.050848 -54.745763 50.118644 
-321.627119 61.186441 -80.152542 
-696.338983 -56.779661 52.491525 
-333.355932 63.220339 -82.525424 
-721.627119 -58.813559 54.864407 
-345.084746 65.254237 -84.898305 
-746.915254 -60.847458 57.237288 
-356.813559 67.288136 -87.271186 
-772.20339 -62.881356 59.61017 
-368.542373 69.322034 -89.644068 
-797.491526 -64.915254 61.983051 
-380.271187 71.355932 -92.016949 
-822.779661 -66.949153 64.355932 
-392.0 73.389831 -94.389831 
-848.067797 -68.983051 66.728814 
-403.728814 75.423729 -96.762712 
-873.355932 -71.016949 69.101695 
-415.457627 77.457627 -99.135593 
-898.644068 -73.050847 71.474576 
-427.186441 79.491525 -101.508475 
-923.932204 -75.084746 73.847458 
-438.915254 81.525424 -103.881356 
-949.220339 -77.118644 76.220339 
-450.644068 83.559322 -106.254237 
-974.508475 -79.152542 78.59322 
-462.372881 85.59322 -108.627119 
-999.79661 -81.186441 80.966102 
-474.101695 87.627119 -111.0 
-1025.084746 -83.220339 83.338983 
-485.830509 89.661017 -113.372881 
-1050.372882 -85.254237 85.711864 
-497.559322 91.694915 -115.745763 
-1075.661017 -87.288136 88.084746 
-509.288136 93.728814 -118.118644 
-1100.949153 -89.322034 90.457627 
-521.016949 95.762712 -120.491525 
-1126.237288 -91.355932 92.830509 
-532.745763 97.79661 -122.864407 
-1151.525424 -93.389831 95.20339 
-544.474576 99.830509 -125.237288 
-1176.81356 -95.423729 97.576271 
-556.20339 101.864407 -127.61017 
-1202.101695 -97.457627 99.949153 
-567.932204 103.898305 -129.983051 
-1227.389831 -99.491525 102.322034 
-579.661017 105.932203 -132.355932 
-1252.677967 -101.525424 104.694915 
-591.389831 107.966102 -134.728814 
-1277.966102 -103.559322 107.067797 
-603.118644 110.0 -137.101695 
-1303.254238 -105.59322 109.440678 
-614.847458 112.033898 -139.474576 
-1328.542373 -107.627119 111.813559 
-626.576271 114.067797 -141.847458 
-1353.830509 -109.661017 114.186441 
-638.305085 116.101695 -144.220339 
-1379.118645 -111.694915 116.559322 
-650.033899 118.135593 -146.59322 
-1404.40678 -113.728814 118.932203 
-661.762712 120.169492 -148.966102 
-1429.694916 -115.762712 121.305085 
-673.491526 122.20339 -151.338983 
-1454.983051 -117.79661 123.677966 
-685.220339 124.237288 -153.711864 
-1480.271186 -119.830508 126.050848 
-696.949153 126.271186 -156.084745 
-1505.559321 -121.864406 128.423729 
-708.677967 128.305084 -158.457625 
-1530.847455 -123.898304 130.796611 
-720.406781 130.33898 -160.830505 
-1556.135587 -125.932203 133.169492 
-732.135596 132.372876 -163.203388 
-1581.423722 -127.966102 135.542371 
-743.864411 134.406771 -165.576283 
-1606.711868 -130.000006 137.915241 
-755.593226 136.440672 -167.94922 
-1632.000062 -132.033924 140.288089 
-767.322041 138.474597 -170.32227 
-1657.288403 -134.067881 142.660879 
-779.050863 140.508605 -172.695591 
-1682.577126 -136.101929 145.033547 
-790.779733 142.542843 -175.069453 
-1707.866715 -138.136151 147.406001 
-802.508853 144.577616 -177.444134 
-1733.157945 -140.170621 149.778223 
-814.238999 146.613419 -179.819173 
-1758.451383 -142.205143 152.150697 
-825.972859 148.650573 -182.190548 
-1783.744745 -144.238305 154.525811 
-837.719 150.687285 -184.541909 
-1809.02354 -146.264631 156.911753 
-849.503039 152.712584 -186.820725 
-1834.233464 -148.267054 159.331984 
-861.397677 154.684644 -188.880097 
-1859.208751 -150.19913 161.845438 
-873.600036 156.470989 -190.351949 
-1883.506886 -151.948119 164.581963 
-886.622248 157.692171 -190.409798 
-1906.078404 -153.272521 167.780431 
-901.732844 157.282179 -187.45056 
-1924.766791 -153.751191 171.721411 
-921.82852 151.58867 -179.241244 
-1936.302469 -153.088708 175.914882 
-951.88794 116.420031 -166.924852 
-1942.718479 -154.678318 172.825234 
-983.07252 -294.921756 -173.562365 
-2026.302362 -205.904296 83.340969 
