# vtk DataFile Version 3.1
for FEM Programme igpoints output
ASCII
DATASET POLYDATA
POINTS 640 double
 341.666667 45.833333 0.0
 345.833333 41.666667 0.0
 329.166667 45.833333 0.0
 333.333333 41.666667 0.0
 316.666667 45.833333 0.0
 320.833333 41.666667 0.0
 304.166667 45.833333 0.0
 308.333333 41.666667 0.0
 291.666667 45.833333 0.0
 295.833333 41.666667 0.0
 279.166667 45.833333 0.0
 283.333333 41.666667 0.0
 266.666667 45.833333 0.0
 270.833333 41.666667 0.0
 254.166667 45.833333 0.0
 258.333333 41.666667 0.0
 241.666667 45.833333 0.0
 245.833333 41.666667 0.0
 229.166667 45.833333 0.0
 233.333333 41.666667 0.0
 216.666667 45.833333 0.0
 220.833333 41.666667 0.0
 204.166667 45.833333 0.0
 208.333333 41.666667 0.0
 191.666667 45.833333 0.0
 195.833333 41.666667 0.0
 179.166667 45.833333 0.0
 183.333333 41.666667 0.0
 166.666667 45.833333 0.0
 170.833333 41.666667 0.0
 154.166667 45.833333 0.0
 158.333333 41.666667 0.0
 141.666667 45.833333 0.0
 145.833333 41.666667 0.0
 129.166667 45.833333 0.0
 133.333333 41.666667 0.0
 116.666667 45.833333 0.0
 120.833333 41.666667 0.0
 104.166667 45.833333 0.0
 108.333333 41.666667 0.0
 91.666667 45.833333 0.0
 95.833333 41.666667 0.0
 79.166667 45.833333 0.0
 83.333333 41.666667 0.0
 66.666667 45.833333 0.0
 70.833333 41.666667 0.0
 54.166667 45.833333 0.0
 58.333333 41.666667 0.0
 41.666667 45.833333 0.0
 45.833333 41.666667 0.0
 29.166667 45.833333 0.0
 33.333333 41.666667 0.0
 16.666667 45.833333 0.0
 20.833333 41.666667 0.0
 4.166667 45.833333 0.0
 8.333333 41.666667 0.0
 -8.333333 45.833333 0.0
 -4.166667 41.666667 0.0
 -20.833333 45.833333 0.0
 -16.666667 41.666667 0.0
 -33.333333 45.833333 0.0
 -29.166667 41.666667 0.0
 -45.833333 45.833333 0.0
 -41.666667 41.666667 0.0
 -58.333333 45.833333 0.0
 -54.166667 41.666667 0.0
 -70.833333 45.833333 0.0
 -66.666667 41.666667 0.0
 -83.333333 45.833333 0.0
 -79.166667 41.666667 0.0
 -95.833333 45.833333 0.0
 -91.666667 41.666667 0.0
 -108.333333 45.833333 0.0
 -104.166667 41.666667 0.0
 -120.833333 45.833333 0.0
 -116.666667 41.666667 0.0
 -133.333333 45.833333 0.0
 -129.166667 41.666667 0.0
 -145.833333 45.833333 0.0
 -141.666667 41.666667 0.0
 -158.333333 45.833333 0.0
 -154.166667 41.666667 0.0
 -170.833333 45.833333 0.0
 -166.666667 41.666667 0.0
 -183.333333 45.833333 0.0
 -179.166667 41.666667 0.0
 -195.833333 45.833333 0.0
 -191.666667 41.666667 0.0
 -208.333333 45.833333 0.0
 -204.166667 41.666667 0.0
 -220.833333 45.833333 0.0
 -216.666667 41.666667 0.0
 -233.333333 45.833333 0.0
 -229.166667 41.666667 0.0
 -245.833333 45.833333 0.0
 -241.666667 41.666667 0.0
 -258.333333 45.833333 0.0
 -254.166667 41.666667 0.0
 -270.833333 45.833333 0.0
 -266.666667 41.666667 0.0
 -283.333333 45.833333 0.0
 -279.166667 41.666667 0.0
 -295.833333 45.833333 0.0
 -291.666667 41.666667 0.0
 -308.333333 45.833333 0.0
 -304.166667 41.666667 0.0
 -320.833333 45.833333 0.0
 -316.666667 41.666667 0.0
 -333.333333 45.833333 0.0
 -329.166667 41.666667 0.0
 -345.833333 45.833333 0.0
 -341.666667 41.666667 0.0
 -358.333333 45.833333 0.0
 -354.166667 41.666667 0.0
 -370.833333 45.833333 0.0
 -366.666667 41.666667 0.0
 -383.333333 45.833333 0.0
 -379.166667 41.666667 0.0
 -395.833333 45.833333 0.0
 -391.666667 41.666667 0.0
 -408.333333 45.833333 0.0
 -404.166667 41.666667 0.0
 -420.833333 45.833333 0.0
 -416.666667 41.666667 0.0
 -433.333333 45.833333 0.0
 -429.166667 41.666667 0.0
 -445.833333 45.833333 0.0
 -441.666667 41.666667 0.0
 -458.333333 45.833333 0.0
 -454.166667 41.666667 0.0
 -470.833333 45.833333 0.0
 -466.666667 41.666667 0.0
 -483.333333 45.833333 0.0
 -479.166667 41.666667 0.0
 -495.833333 45.833333 0.0
 -491.666667 41.666667 0.0
 -508.333333 45.833333 0.0
 -504.166667 41.666667 0.0
 -520.833333 45.833333 0.0
 -516.666667 41.666667 0.0
 -533.333333 45.833333 0.0
 -529.166667 41.666667 0.0
 -545.833333 45.833333 0.0
 -541.666667 41.666667 0.0
 -558.333333 45.833333 0.0
 -554.166667 41.666667 0.0
 -570.833333 45.833333 0.0
 -566.666667 41.666667 0.0
 -583.333333 45.833333 0.0
 -579.166667 41.666667 0.0
 -595.833333 45.833333 0.0
 -591.666667 41.666667 0.0
 -608.333333 45.833333 0.0
 -604.166667 41.666667 0.0
 -620.833333 45.833333 0.0
 -616.666667 41.666667 0.0
 -633.333333 45.833333 0.0
 -629.166667 41.666667 0.0
 -645.833333 45.833333 0.0
 -641.666667 41.666667 0.0
 341.666667 33.333333 0.0
 345.833333 29.166667 0.0
 329.166667 33.333333 0.0
 333.333333 29.166667 0.0
 316.666667 33.333333 0.0
 320.833333 29.166667 0.0
 304.166667 33.333333 0.0
 308.333333 29.166667 0.0
 291.666667 33.333333 0.0
 295.833333 29.166667 0.0
 279.166667 33.333333 0.0
 283.333333 29.166667 0.0
 266.666667 33.333333 0.0
 270.833333 29.166667 0.0
 254.166667 33.333333 0.0
 258.333333 29.166667 0.0
 241.666667 33.333333 0.0
 245.833333 29.166667 0.0
 229.166667 33.333333 0.0
 233.333333 29.166667 0.0
 216.666667 33.333333 0.0
 220.833333 29.166667 0.0
 204.166667 33.333333 0.0
 208.333333 29.166667 0.0
 191.666667 33.333333 0.0
 195.833333 29.166667 0.0
 179.166667 33.333333 0.0
 183.333333 29.166667 0.0
 166.666667 33.333333 0.0
 170.833333 29.166667 0.0
 154.166667 33.333333 0.0
 158.333333 29.166667 0.0
 141.666667 33.333333 0.0
 145.833333 29.166667 0.0
 129.166667 33.333333 0.0
 133.333333 29.166667 0.0
 116.666667 33.333333 0.0
 120.833333 29.166667 0.0
 104.166667 33.333333 0.0
 108.333333 29.166667 0.0
 91.666667 33.333333 0.0
 95.833333 29.166667 0.0
 79.166667 33.333333 0.0
 83.333333 29.166667 0.0
 66.666667 33.333333 0.0
 70.833333 29.166667 0.0
 54.166667 33.333333 0.0
 58.333333 29.166667 0.0
 41.666667 33.333333 0.0
 45.833333 29.166667 0.0
 29.166667 33.333333 0.0
 33.333333 29.166667 0.0
 16.666667 33.333333 0.0
 20.833333 29.166667 0.0
 4.166667 33.333333 0.0
 8.333333 29.166667 0.0
 -8.333333 33.333333 0.0
 -4.166667 29.166667 0.0
 -20.833333 33.333333 0.0
 -16.666667 29.166667 0.0
 -33.333333 33.333333 0.0
 -29.166667 29.166667 0.0
 -45.833333 33.333333 0.0
 -41.666667 29.166667 0.0
 -58.333333 33.333333 0.0
 -54.166667 29.166667 0.0
 -70.833333 33.333333 0.0
 -66.666667 29.166667 0.0
 -83.333333 33.333333 0.0
 -79.166667 29.166667 0.0
 -95.833333 33.333333 0.0
 -91.666667 29.166667 0.0
 -108.333333 33.333333 0.0
 -104.166667 29.166667 0.0
 -120.833333 33.333333 0.0
 -116.666667 29.166667 0.0
 -133.333333 33.333333 0.0
 -129.166667 29.166667 0.0
 -145.833333 33.333333 0.0
 -141.666667 29.166667 0.0
 -158.333333 33.333333 0.0
 -154.166667 29.166667 0.0
 -170.833333 33.333333 0.0
 -166.666667 29.166667 0.0
 -183.333333 33.333333 0.0
 -179.166667 29.166667 0.0
 -195.833333 33.333333 0.0
 -191.666667 29.166667 0.0
 -208.333333 33.333333 0.0
 -204.166667 29.166667 0.0
 -220.833333 33.333333 0.0
 -216.666667 29.166667 0.0
 -233.333333 33.333333 0.0
 -229.166667 29.166667 0.0
 -245.833333 33.333333 0.0
 -241.666667 29.166667 0.0
 -258.333333 33.333333 0.0
 -254.166667 29.166667 0.0
 -270.833333 33.333333 0.0
 -266.666667 29.166667 0.0
 -283.333333 33.333333 0.0
 -279.166667 29.166667 0.0
 -295.833333 33.333333 0.0
 -291.666667 29.166667 0.0
 -308.333333 33.333333 0.0
 -304.166667 29.166667 0.0
 -320.833333 33.333333 0.0
 -316.666667 29.166667 0.0
 -333.333333 33.333333 0.0
 -329.166667 29.166667 0.0
 -345.833333 33.333333 0.0
 -341.666667 29.166667 0.0
 -358.333333 33.333333 0.0
 -354.166667 29.166667 0.0
 -370.833333 33.333333 0.0
 -366.666667 29.166667 0.0
 -383.333333 33.333333 0.0
 -379.166667 29.166667 0.0
 -395.833333 33.333333 0.0
 -391.666667 29.166667 0.0
 -408.333333 33.333333 0.0
 -404.166667 29.166667 0.0
 -420.833333 33.333333 0.0
 -416.666667 29.166667 0.0
 -433.333333 33.333333 0.0
 -429.166667 29.166667 0.0
 -445.833333 33.333333 0.0
 -441.666667 29.166667 0.0
 -458.333333 33.333333 0.0
 -454.166667 29.166667 0.0
 -470.833333 33.333333 0.0
 -466.666667 29.166667 0.0
 -483.333333 33.333333 0.0
 -479.166667 29.166667 0.0
 -495.833333 33.333333 0.0
 -491.666667 29.166667 0.0
 -508.333333 33.333333 0.0
 -504.166667 29.166667 0.0
 -520.833333 33.333333 0.0
 -516.666667 29.166667 0.0
 -533.333333 33.333333 0.0
 -529.166667 29.166667 0.0
 -545.833333 33.333333 0.0
 -541.666667 29.166667 0.0
 -558.333333 33.333333 0.0
 -554.166667 29.166667 0.0
 -570.833333 33.333333 0.0
 -566.666667 29.166667 0.0
 -583.333333 33.333333 0.0
 -579.166667 29.166667 0.0
 -595.833333 33.333333 0.0
 -591.666667 29.166667 0.0
 -608.333333 33.333333 0.0
 -604.166667 29.166667 0.0
 -620.833333 33.333333 0.0
 -616.666667 29.166667 0.0
 -633.333333 33.333333 0.0
 -629.166667 29.166667 0.0
 -645.833333 33.333333 0.0
 -641.666667 29.166667 0.0
 341.666667 20.833333 0.0
 345.833333 16.666667 0.0
 329.166667 20.833333 0.0
 333.333333 16.666667 0.0
 316.666667 20.833333 0.0
 320.833333 16.666667 0.0
 304.166667 20.833333 0.0
 308.333333 16.666667 0.0
 291.666667 20.833333 0.0
 295.833333 16.666667 0.0
 279.166667 20.833333 0.0
 283.333333 16.666667 0.0
 266.666667 20.833333 0.0
 270.833333 16.666667 0.0
 254.166667 20.833333 0.0
 258.333333 16.666667 0.0
 241.666667 20.833333 0.0
 245.833333 16.666667 0.0
 229.166667 20.833333 0.0
 233.333333 16.666667 0.0
 216.666667 20.833333 0.0
 220.833333 16.666667 0.0
 204.166667 20.833333 0.0
 208.333333 16.666667 0.0
 191.666667 20.833333 0.0
 195.833333 16.666667 0.0
 179.166667 20.833333 0.0
 183.333333 16.666667 0.0
 166.666667 20.833333 0.0
 170.833333 16.666667 0.0
 154.166667 20.833333 0.0
 158.333333 16.666667 0.0
 141.666667 20.833333 0.0
 145.833333 16.666667 0.0
 129.166667 20.833333 0.0
 133.333333 16.666667 0.0
 116.666667 20.833333 0.0
 120.833333 16.666667 0.0
 104.166667 20.833333 0.0
 108.333333 16.666667 0.0
 91.666667 20.833333 0.0
 95.833333 16.666667 0.0
 79.166667 20.833333 0.0
 83.333333 16.666667 0.0
 66.666667 20.833333 0.0
 70.833333 16.666667 0.0
 54.166667 20.833333 0.0
 58.333333 16.666667 0.0
 41.666667 20.833333 0.0
 45.833333 16.666667 0.0
 29.166667 20.833333 0.0
 33.333333 16.666667 0.0
 16.666667 20.833333 0.0
 20.833333 16.666667 0.0
 4.166667 20.833333 0.0
 8.333333 16.666667 0.0
 -8.333333 20.833333 0.0
 -4.166667 16.666667 0.0
 -20.833333 20.833333 0.0
 -16.666667 16.666667 0.0
 -33.333333 20.833333 0.0
 -29.166667 16.666667 0.0
 -45.833333 20.833333 0.0
 -41.666667 16.666667 0.0
 -58.333333 20.833333 0.0
 -54.166667 16.666667 0.0
 -70.833333 20.833333 0.0
 -66.666667 16.666667 0.0
 -83.333333 20.833333 0.0
 -79.166667 16.666667 0.0
 -95.833333 20.833333 0.0
 -91.666667 16.666667 0.0
 -108.333333 20.833333 0.0
 -104.166667 16.666667 0.0
 -120.833333 20.833333 0.0
 -116.666667 16.666667 0.0
 -133.333333 20.833333 0.0
 -129.166667 16.666667 0.0
 -145.833333 20.833333 0.0
 -141.666667 16.666667 0.0
 -158.333333 20.833333 0.0
 -154.166667 16.666667 0.0
 -170.833333 20.833333 0.0
 -166.666667 16.666667 0.0
 -183.333333 20.833333 0.0
 -179.166667 16.666667 0.0
 -195.833333 20.833333 0.0
 -191.666667 16.666667 0.0
 -208.333333 20.833333 0.0
 -204.166667 16.666667 0.0
 -220.833333 20.833333 0.0
 -216.666667 16.666667 0.0
 -233.333333 20.833333 0.0
 -229.166667 16.666667 0.0
 -245.833333 20.833333 0.0
 -241.666667 16.666667 0.0
 -258.333333 20.833333 0.0
 -254.166667 16.666667 0.0
 -270.833333 20.833333 0.0
 -266.666667 16.666667 0.0
 -283.333333 20.833333 0.0
 -279.166667 16.666667 0.0
 -295.833333 20.833333 0.0
 -291.666667 16.666667 0.0
 -308.333333 20.833333 0.0
 -304.166667 16.666667 0.0
 -320.833333 20.833333 0.0
 -316.666667 16.666667 0.0
 -333.333333 20.833333 0.0
 -329.166667 16.666667 0.0
 -345.833333 20.833333 0.0
 -341.666667 16.666667 0.0
 -358.333333 20.833333 0.0
 -354.166667 16.666667 0.0
 -370.833333 20.833333 0.0
 -366.666667 16.666667 0.0
 -383.333333 20.833333 0.0
 -379.166667 16.666667 0.0
 -395.833333 20.833333 0.0
 -391.666667 16.666667 0.0
 -408.333333 20.833333 0.0
 -404.166667 16.666667 0.0
 -420.833333 20.833333 0.0
 -416.666667 16.666667 0.0
 -433.333333 20.833333 0.0
 -429.166667 16.666667 0.0
 -445.833333 20.833333 0.0
 -441.666667 16.666667 0.0
 -458.333333 20.833333 0.0
 -454.166667 16.666667 0.0
 -470.833333 20.833333 0.0
 -466.666667 16.666667 0.0
 -483.333333 20.833333 0.0
 -479.166667 16.666667 0.0
 -495.833333 20.833333 0.0
 -491.666667 16.666667 0.0
 -508.333333 20.833333 0.0
 -504.166667 16.666667 0.0
 -520.833333 20.833333 0.0
 -516.666667 16.666667 0.0
 -533.333333 20.833333 0.0
 -529.166667 16.666667 0.0
 -545.833333 20.833333 0.0
 -541.666667 16.666667 0.0
 -558.333333 20.833333 0.0
 -554.166667 16.666667 0.0
 -570.833333 20.833333 0.0
 -566.666667 16.666667 0.0
 -583.333333 20.833333 0.0
 -579.166667 16.666667 0.0
 -595.833333 20.833333 0.0
 -591.666667 16.666667 0.0
 -608.333333 20.833333 0.0
 -604.166667 16.666667 0.0
 -620.833333 20.833333 0.0
 -616.666667 16.666667 0.0
 -633.333333 20.833333 0.0
 -629.166667 16.666667 0.0
 -645.833333 20.833333 0.0
 -641.666667 16.666667 0.0
 341.666667 8.333333 0.0
 345.833333 4.166667 0.0
 329.166667 8.333333 0.0
 333.333333 4.166667 0.0
 316.666667 8.333333 0.0
 320.833333 4.166667 0.0
 304.166667 8.333333 0.0
 308.333333 4.166667 0.0
 291.666667 8.333333 0.0
 295.833333 4.166667 0.0
 279.166667 8.333333 0.0
 283.333333 4.166667 0.0
 266.666667 8.333333 0.0
 270.833333 4.166667 0.0
 254.166667 8.333333 0.0
 258.333333 4.166667 0.0
 241.666667 8.333333 0.0
 245.833333 4.166667 0.0
 229.166667 8.333333 0.0
 233.333333 4.166667 0.0
 216.666667 8.333333 0.0
 220.833333 4.166667 0.0
 204.166667 8.333333 0.0
 208.333333 4.166667 0.0
 191.666667 8.333333 0.0
 195.833333 4.166667 0.0
 179.166667 8.333333 0.0
 183.333333 4.166667 0.0
 166.666667 8.333333 0.0
 170.833333 4.166667 0.0
 154.166667 8.333333 0.0
 158.333333 4.166667 0.0
 141.666667 8.333333 0.0
 145.833333 4.166667 0.0
 129.166667 8.333333 0.0
 133.333333 4.166667 0.0
 116.666667 8.333333 0.0
 120.833333 4.166667 0.0
 104.166667 8.333333 0.0
 108.333333 4.166667 0.0
 91.666667 8.333333 0.0
 95.833333 4.166667 0.0
 79.166667 8.333333 0.0
 83.333333 4.166667 0.0
 66.666667 8.333333 0.0
 70.833333 4.166667 0.0
 54.166667 8.333333 0.0
 58.333333 4.166667 0.0
 41.666667 8.333333 0.0
 45.833333 4.166667 0.0
 29.166667 8.333333 0.0
 33.333333 4.166667 0.0
 16.666667 8.333333 0.0
 20.833333 4.166667 0.0
 4.166667 8.333333 0.0
 8.333333 4.166667 0.0
 -8.333333 8.333333 0.0
 -4.166667 4.166667 0.0
 -20.833333 8.333333 0.0
 -16.666667 4.166667 0.0
 -33.333333 8.333333 0.0
 -29.166667 4.166667 0.0
 -45.833333 8.333333 0.0
 -41.666667 4.166667 0.0
 -58.333333 8.333333 0.0
 -54.166667 4.166667 0.0
 -70.833333 8.333333 0.0
 -66.666667 4.166667 0.0
 -83.333333 8.333333 0.0
 -79.166667 4.166667 0.0
 -95.833333 8.333333 0.0
 -91.666667 4.166667 0.0
 -108.333333 8.333333 0.0
 -104.166667 4.166667 0.0
 -120.833333 8.333333 0.0
 -116.666667 4.166667 0.0
 -133.333333 8.333333 0.0
 -129.166667 4.166667 0.0
 -145.833333 8.333333 0.0
 -141.666667 4.166667 0.0
 -158.333333 8.333333 0.0
 -154.166667 4.166667 0.0
 -170.833333 8.333333 0.0
 -166.666667 4.166667 0.0
 -183.333333 8.333333 0.0
 -179.166667 4.166667 0.0
 -195.833333 8.333333 0.0
 -191.666667 4.166667 0.0
 -208.333333 8.333333 0.0
 -204.166667 4.166667 0.0
 -220.833333 8.333333 0.0
 -216.666667 4.166667 0.0
 -233.333333 8.333333 0.0
 -229.166667 4.166667 0.0
 -245.833333 8.333333 0.0
 -241.666667 4.166667 0.0
 -258.333333 8.333333 0.0
 -254.166667 4.166667 0.0
 -270.833333 8.333333 0.0
 -266.666667 4.166667 0.0
 -283.333333 8.333333 0.0
 -279.166667 4.166667 0.0
 -295.833333 8.333333 0.0
 -291.666667 4.166667 0.0
 -308.333333 8.333333 0.0
 -304.166667 4.166667 0.0
 -320.833333 8.333333 0.0
 -316.666667 4.166667 0.0
 -333.333333 8.333333 0.0
 -329.166667 4.166667 0.0
 -345.833333 8.333333 0.0
 -341.666667 4.166667 0.0
 -358.333333 8.333333 0.0
 -354.166667 4.166667 0.0
 -370.833333 8.333333 0.0
 -366.666667 4.166667 0.0
 -383.333333 8.333333 0.0
 -379.166667 4.166667 0.0
 -395.833333 8.333333 0.0
 -391.666667 4.166667 0.0
 -408.333333 8.333333 0.0
 -404.166667 4.166667 0.0
 -420.833333 8.333333 0.0
 -416.666667 4.166667 0.0
 -433.333333 8.333333 0.0
 -429.166667 4.166667 0.0
 -445.833333 8.333333 0.0
 -441.666667 4.166667 0.0
 -458.333333 8.333333 0.0
 -454.166667 4.166667 0.0
 -470.833333 8.333333 0.0
 -466.666667 4.166667 0.0
 -483.333333 8.333333 0.0
 -479.166667 4.166667 0.0
 -495.833333 8.333333 0.0
 -491.666667 4.166667 0.0
 -508.333333 8.333333 0.0
 -504.166667 4.166667 0.0
 -520.833333 8.333333 0.0
 -516.666667 4.166667 0.0
 -533.333333 8.333333 0.0
 -529.166667 4.166667 0.0
 -545.833333 8.333333 0.0
 -541.666667 4.166667 0.0
 -558.333333 8.333333 0.0
 -554.166667 4.166667 0.0
 -570.833333 8.333333 0.0
 -566.666667 4.166667 0.0
 -583.333333 8.333333 0.0
 -579.166667 4.166667 0.0
 -595.833333 8.333333 0.0
 -591.666667 4.166667 0.0
 -608.333333 8.333333 0.0
 -604.166667 4.166667 0.0
 -620.833333 8.333333 0.0
 -616.666667 4.166667 0.0
 -633.333333 8.333333 0.0
 -629.166667 4.166667 0.0
 -645.833333 8.333333 0.0
 -641.666667 4.166667 0.0
POINT_DATA 640
VECTORS displacement double
0.129388  -8.052266  0.0
0.078483  -8.103194  0.0
0.129358  -7.89949  0.0
0.078474  -7.950417  0.0
0.129289  -7.746757  0.0
0.078442  -7.797657  0.0
0.129176  -7.594133  0.0
0.078383  -7.644986  0.0
0.129019  -7.441676  0.0
0.078298  -7.492464  0.0
0.12882  -7.289438  0.0
0.078188  -7.340143  0.0
0.128579  -7.137468  0.0
0.078053  -7.188075  0.0
0.128297  -6.985816  0.0
0.077893  -7.036308  0.0
0.127974  -6.834529  0.0
0.077708  -6.884891  0.0
0.127611  -6.683656  0.0
0.077499  -6.733872  0.0
0.127207  -6.533245  0.0
0.077265  -6.583298  0.0
0.126762  -6.383343  0.0
0.077006  -6.433218  0.0
0.126277  -6.233998  0.0
0.076723  -6.283679  0.0
0.125751  -6.085259  0.0
0.076415  -6.134729  0.0
0.125184  -5.937172  0.0
0.076082  -5.986416  0.0
0.124577  -5.789787  0.0
0.075725  -5.838788  0.0
0.12393  -5.643149  0.0
0.075343  -5.691893  0.0
0.123242  -5.497308  0.0
0.074937  -5.545778  0.0
0.122513  -5.352311  0.0
0.074506  -5.400491  0.0
0.121744  -5.208205  0.0
0.07405  -5.25608  0.0
0.120935  -5.065039  0.0
0.07357  -5.112592  0.0
0.120085  -4.922861  0.0
0.073065  -4.970076  0.0
0.119194  -4.781717  0.0
0.072535  -4.828579  0.0
0.118263  -4.641657  0.0
0.071981  -4.688149  0.0
0.117291  -4.502727  0.0
0.071403  -4.548833  0.0
0.116279  -4.364975  0.0
0.070799  -4.41068  0.0
0.115226  -4.22845  0.0
0.070171  -4.273738  0.0
0.114133  -4.093199  0.0
0.069519  -4.138053  0.0
0.112999  -3.959269  0.0
0.068842  -4.003674  0.0
0.111824  -3.826709  0.0
0.06814  -3.870649  0.0
0.110609  -3.695566  0.0
0.067414  -3.739025  0.0
0.109354  -3.565888  0.0
0.066663  -3.60885  0.0
0.108058  -3.437723  0.0
0.065887  -3.480173  0.0
0.106721  -3.311119  0.0
0.065087  -3.35304  0.0
0.105344  -3.186123  0.0
0.064262  -3.227499  0.0
0.103927  -3.062783  0.0
0.063413  -3.103598  0.0
0.102469  -2.941147  0.0
0.062539  -2.981386  0.0
0.10097  -2.821263  0.0
0.06164  -2.860909  0.0
0.099431  -2.703178  0.0
0.060717  -2.742216  0.0
0.097851  -2.586941  0.0
0.059769  -2.625354  0.0
0.096231  -2.472598  0.0
0.058797  -2.510372  0.0
0.09457  -2.360199  0.0
0.0578  -2.397316  0.0
0.092868  -2.24979  0.0
0.056778  -2.286235  0.0
0.091127  -2.141419  0.0
0.055732  -2.177176  0.0
0.089344  -2.035134  0.0
0.054661  -2.070187  0.0
0.087521  -1.930983  0.0
0.053565  -1.965317  0.0
0.085658  -1.829014  0.0
0.052445  -1.862612  0.0
0.083754  -1.729275  0.0
0.0513  -1.76212  0.0
0.081809  -1.631812  0.0
0.050131  -1.66389  0.0
0.079824  -1.536675  0.0
0.048937  -1.567969  0.0
0.077798  -1.44391  0.0
0.047718  -1.474405  0.0
0.075732  -1.353566  0.0
0.046475  -1.383245  0.0
0.073625  -1.26569  0.0
0.045207  -1.294538  0.0
0.071478  -1.18033  0.0
0.043915  -1.208331  0.0
0.06929  -1.097534  0.0
0.042598  -1.124672  0.0
0.067062  -1.01735  0.0
0.041256  -1.043608  0.0
0.064793  -0.939825  0.0
0.03989  -0.965188  0.0
0.062484  -0.865007  0.0
0.038499  -0.88946  0.0
0.060134  -0.792944  0.0
0.037084  -0.81647  0.0
0.057743  -0.723684  0.0
0.035644  -0.746267  0.0
0.055312  -0.657274  0.0
0.034179  -0.678899  0.0
0.052841  -0.593763  0.0
0.03269  -0.614413  0.0
0.050329  -0.533198  0.0
0.031176  -0.552857  0.0
0.047776  -0.475626  0.0
0.029638  -0.494279  0.0
0.045183  -0.421096  0.0
0.028074  -0.438726  0.0
0.042549  -0.369655  0.0
0.026487  -0.386247  0.0
0.039875  -0.321352  0.0
0.024874  -0.33689  0.0
0.03716  -0.276234  0.0
0.023237  -0.290701  0.0
0.034405  -0.234348  0.0
0.021576  -0.247729  0.0
0.031609  -0.195743  0.0
0.01989  -0.208022  0.0
0.028773  -0.160466  0.0
0.018179  -0.171627  0.0
0.025896  -0.128565  0.0
0.016444  -0.138592  0.0
0.022978  -0.100088  0.0
0.014684  -0.108966  0.0
0.020019  -0.075084  0.0
0.0129  -0.082796  0.0
0.01702  -0.053601  0.0
0.011091  -0.06013  0.0
0.013978  -0.035689  0.0
0.009258  -0.041019  0.0
0.010892  -0.0214  0.0
0.007401  -0.025514  0.0
0.007758  -0.010795  0.0
0.005519  -0.013671  0.0
0.004577  -0.003937  0.0
0.003609  -0.005558  0.0
0.001425  -0.00077  0.0
0.001661  -0.001296  0.0
-0.023327  -8.052285  0.0
-0.074237  -8.103234  0.0
-0.023318  -7.899496  0.0
-0.074214  -7.950436  0.0
-0.023303  -7.746755  0.0
-0.074178  -7.797667  0.0
-0.023278  -7.594125  0.0
-0.074116  -7.644994  0.0
-0.023244  -7.441663  0.0
-0.074028  -7.492472  0.0
-0.023201  -7.28942  0.0
-0.073912  -7.340152  0.0
-0.023149  -7.137445  0.0
-0.073772  -7.188084  0.0
-0.02309  -6.985788  0.0
-0.073607  -7.036317  0.0
-0.023024  -6.834496  0.0
-0.073418  -6.884899  0.0
-0.02295  -6.683618  0.0
-0.073206  -6.73388  0.0
-0.022868  -6.533202  0.0
-0.072971  -6.583306  0.0
-0.02278  -6.383295  0.0
-0.072712  -6.433225  0.0
-0.022684  -6.233945  0.0
-0.07243  -6.283686  0.0
-0.022581  -6.085201  0.0
-0.072125  -6.134736  0.0
-0.02247  -5.937109  0.0
-0.071797  -5.986423  0.0
-0.022353  -5.789718  0.0
-0.071445  -5.838795  0.0
-0.022228  -5.643076  0.0
-0.071071  -5.6919  0.0
-0.022096  -5.49723  0.0
-0.070673  -5.545784  0.0
-0.021956  -5.352228  0.0
-0.070252  -5.400497  0.0
-0.02181  -5.208117  0.0
-0.069808  -5.256085  0.0
-0.021656  -5.064946  0.0
-0.069341  -5.112598  0.0
-0.021495  -4.922763  0.0
-0.06885  -4.970081  0.0
-0.021326  -4.781614  0.0
-0.068337  -4.828584  0.0
-0.021151  -4.641549  0.0
-0.0678  -4.688154  0.0
-0.020968  -4.502614  0.0
-0.06724  -4.548838  0.0
-0.020778  -4.364857  0.0
-0.066657  -4.410685  0.0
-0.020581  -4.228327  0.0
-0.066051  -4.273742  0.0
-0.020376  -4.093071  0.0
-0.065421  -4.138057  0.0
-0.020165  -3.959136  0.0
-0.064769  -4.003678  0.0
-0.019946  -3.826571  0.0
-0.064093  -3.870653  0.0
-0.019719  -3.695423  0.0
-0.063394  -3.739029  0.0
-0.019486  -3.56574  0.0
-0.062672  -3.608854  0.0
-0.019245  -3.43757  0.0
-0.061927  -3.480176  0.0
-0.018997  -3.310961  0.0
-0.061159  -3.353042  0.0
-0.018742  -3.18596  0.0
-0.060367  -3.227502  0.0
-0.01848  -3.062615  0.0
-0.059552  -3.103601  0.0
-0.01821  -2.940974  0.0
-0.058714  -2.981388  0.0
-0.017933  -2.821085  0.0
-0.057853  -2.860911  0.0
-0.017649  -2.702995  0.0
-0.056969  -2.742218  0.0
-0.017358  -2.586753  0.0
-0.056062  -2.625356  0.0
-0.017059  -2.472405  0.0
-0.055131  -2.510373  0.0
-0.016753  -2.360001  0.0
-0.054178  -2.397317  0.0
-0.01644  -2.249587  0.0
-0.053201  -2.286236  0.0
-0.01612  -2.141211  0.0
-0.052201  -2.177177  0.0
-0.015792  -2.034921  0.0
-0.051178  -2.070188  0.0
-0.015457  -1.930765  0.0
-0.050131  -1.965317  0.0
-0.015115  -1.828791  0.0
-0.049062  -1.862612  0.0
-0.014766  -1.729047  0.0
-0.047969  -1.76212  0.0
-0.014409  -1.631579  0.0
-0.046853  -1.66389  0.0
-0.014046  -1.536437  0.0
-0.045714  -1.567969  0.0
-0.013675  -1.443667  0.0
-0.044552  -1.474404  0.0
-0.013297  -1.353318  0.0
-0.043367  -1.383244  0.0
-0.012911  -1.265437  0.0
-0.042158  -1.294537  0.0
-0.012518  -1.180072  0.0
-0.040927  -1.20833  0.0
-0.012118  -1.097271  0.0
-0.039672  -1.12467  0.0
-0.011711  -1.017082  0.0
-0.038394  -1.043606  0.0
-0.011297  -0.939552  0.0
-0.037093  -0.965186  0.0
-0.010875  -0.864729  0.0
-0.035768  -0.889457  0.0
-0.010446  -0.792661  0.0
-0.034421  -0.816467  0.0
-0.01001  -0.723396  0.0
-0.03305  -0.746264  0.0
-0.009567  -0.656981  0.0
-0.031657  -0.678896  0.0
-0.009116  -0.593465  0.0
-0.03024  -0.614409  0.0
-0.008658  -0.532895  0.0
-0.028799  -0.552853  0.0
-0.008193  -0.475318  0.0
-0.027336  -0.494275  0.0
-0.007721  -0.420783  0.0
-0.02585  -0.438722  0.0
-0.007241  -0.369338  0.0
-0.02434  -0.386243  0.0
-0.006754  -0.321029  0.0
-0.022807  -0.336885  0.0
-0.00626  -0.275906  0.0
-0.021251  -0.290696  0.0
-0.005759  -0.234015  0.0
-0.019672  -0.247724  0.0
-0.00525  -0.195405  0.0
-0.01807  -0.208017  0.0
-0.004734  -0.160123  0.0
-0.016444  -0.171622  0.0
-0.004211  -0.128218  0.0
-0.014795  -0.138587  0.0
-0.003679  -0.099736  0.0
-0.013122  -0.108961  0.0
-0.00314  -0.074728  0.0
-0.011425  -0.082791  0.0
-0.002592  -0.053241  0.0
-0.009703  -0.060127  0.0
-0.002033  -0.035325  0.0
-0.007954  -0.041017  0.0
-0.001463  -0.021031  0.0
-0.006178  -0.025512  0.0
-0.000883  -0.010415  0.0
-0.004373  -0.013663  0.0
-0.000305  -0.003544  0.0
-0.002557  -0.005526  0.0
0.000236  -0.000526  0.0
-0.000762  -0.001153  0.0
-0.175979  -8.052422  0.0
-0.226882  -8.103723  0.0
-0.175911  -7.899539  0.0
-0.226766  -7.950576  0.0
-0.175801  -7.746783  0.0
-0.226638  -7.797715  0.0
-0.17563  -7.594161  0.0
-0.226439  -7.645037  0.0
-0.175399  -7.441711  0.0
-0.226162  -7.492531  0.0
-0.175109  -7.289479  0.0
-0.225811  -7.34023  0.0
-0.174763  -7.137516  0.0
-0.225388  -7.188179  0.0
-0.174361  -6.985868  0.0
-0.224895  -7.036429  0.0
-0.173904  -6.834586  0.0
-0.22433  -6.885026  0.0
-0.173392  -6.683718  0.0
-0.223695  -6.734021  0.0
-0.172825  -6.533311  0.0
-0.22299  -6.583462  0.0
-0.172203  -6.383414  0.0
-0.222213  -6.433395  0.0
-0.171526  -6.234074  0.0
-0.221366  -6.28387  0.0
-0.170793  -6.085339  0.0
-0.220447  -6.134935  0.0
-0.170006  -5.937256  0.0
-0.219458  -5.986636  0.0
-0.169164  -5.789875  0.0
-0.218398  -5.839022  0.0
-0.168267  -5.643242  0.0
-0.217267  -5.69214  0.0
-0.167315  -5.497405  0.0
-0.216065  -5.546039  0.0
-0.166307  -5.352412  0.0
-0.214792  -5.400766  0.0
-0.165245  -5.208311  0.0
-0.213448  -5.256368  0.0
-0.164128  -5.065149  0.0
-0.212034  -5.112895  0.0
-0.162955  -4.922975  0.0
-0.210548  -4.970392  0.0
-0.161728  -4.781836  0.0
-0.208991  -4.828909  0.0
-0.160446  -4.64178  0.0
-0.207364  -4.688493  0.0
-0.159109  -4.502854  0.0
-0.205665  -4.549192  0.0
-0.157716  -4.365107  0.0
-0.203896  -4.411053  0.0
-0.156269  -4.228586  0.0
-0.202055  -4.274124  0.0
-0.154766  -4.093339  0.0
-0.200144  -4.138453  0.0
-0.153209  -3.959414  0.0
-0.198162  -4.004088  0.0
-0.151597  -3.826858  0.0
-0.196108  -3.871077  0.0
-0.149929  -3.69572  0.0
-0.193984  -3.739467  0.0
-0.148207  -3.566046  0.0
-0.191789  -3.609306  0.0
-0.146429  -3.437885  0.0
-0.189523  -3.480642  0.0
-0.144597  -3.311285  0.0
-0.187186  -3.353523  0.0
-0.14271  -3.186294  0.0
-0.184778  -3.227996  0.0
-0.140767  -3.062958  0.0
-0.1823  -3.10411  0.0
-0.13877  -2.941327  0.0
-0.17975  -2.981911  0.0
-0.136717  -2.821447  0.0
-0.177129  -2.861448  0.0
-0.13461  -2.703366  0.0
-0.174437  -2.742769  0.0
-0.132447  -2.587133  0.0
-0.171675  -2.625921  0.0
-0.13023  -2.472795  0.0
-0.168841  -2.510952  0.0
-0.127957  -2.3604  0.0
-0.165937  -2.39791  0.0
-0.12563  -2.249995  0.0
-0.162962  -2.286843  0.0
-0.123247  -2.141629  0.0
-0.159915  -2.177798  0.0
-0.120809  -2.035348  0.0
-0.156798  -2.070824  0.0
-0.118317  -1.931202  0.0
-0.15361  -1.965967  0.0
-0.115769  -1.829237  0.0
-0.150351  -1.863276  0.0
-0.113167  -1.729502  0.0
-0.147021  -1.762798  0.0
-0.110509  -1.632044  0.0
-0.14362  -1.664582  0.0
-0.107796  -1.536911  0.0
-0.140148  -1.568675  0.0
-0.105029  -1.44415  0.0
-0.136605  -1.475125  0.0
-0.102206  -1.35381  0.0
-0.132991  -1.383979  0.0
-0.099329  -1.265939  0.0
-0.129306  -1.295286  0.0
-0.096396  -1.180583  0.0
-0.125551  -1.209092  0.0
-0.093408  -1.097792  0.0
-0.121724  -1.125447  0.0
-0.090365  -1.017612  0.0
-0.117826  -1.044398  0.0
-0.087268  -0.940091  0.0
-0.113858  -0.965992  0.0
-0.084115  -0.865278  0.0
-0.109818  -0.890277  0.0
-0.080907  -0.793219  0.0
-0.105708  -0.817301  0.0
-0.077645  -0.723963  0.0
-0.101527  -0.747112  0.0
-0.074327  -0.657558  0.0
-0.097275  -0.679757  0.0
-0.070954  -0.594051  0.0
-0.092951  -0.615285  0.0
-0.067526  -0.53349  0.0
-0.088557  -0.553743  0.0
-0.064043  -0.475923  0.0
-0.084092  -0.495179  0.0
-0.060506  -0.421397  0.0
-0.079556  -0.439641  0.0
-0.056913  -0.369961  0.0
-0.074949  -0.387176  0.0
-0.053265  -0.321662  0.0
-0.070272  -0.337832  0.0
-0.049562  -0.276548  0.0
-0.065523  -0.291657  0.0
-0.045804  -0.234666  0.0
-0.060703  -0.248699  0.0
-0.041992  -0.196066  0.0
-0.055813  -0.209006  0.0
-0.038124  -0.160793  0.0
-0.050852  -0.172625  0.0
-0.034201  -0.128898  0.0
-0.04582  -0.139605  0.0
-0.030224  -0.100427  0.0
-0.040718  -0.109994  0.0
-0.026191  -0.075431  0.0
-0.035547  -0.083842  0.0
-0.022102  -0.053957  0.0
-0.030305  -0.061197  0.0
-0.017956  -0.036056  0.0
-0.024993  -0.042109  0.0
-0.013748  -0.021769  0.0
-0.019606  -0.02662  0.0
-0.009472  -0.011112  0.0
-0.014132  -0.014737  0.0
-0.005137  -0.004037  0.0
-0.008561  -0.006376  0.0
-0.000998  -0.000627  0.0
-0.003121  -0.001529  0.0
-0.328807  -8.052988  0.0
-0.380193  -8.104758  0.0
-0.328519  -7.899705  0.0
-0.379657  -7.950815  0.0
-0.328236  -7.746858  0.0
-0.379263  -7.797811  0.0
-0.327881  -7.594242  0.0
-0.378841  -7.645131  0.0
-0.327432  -7.44182  0.0
-0.378342  -7.492655  0.0
-0.326885  -7.289617  0.0
-0.377742  -7.340386  0.0
-0.326239  -7.13768  0.0
-0.377033  -7.188367  0.0
-0.325491  -6.986058  0.0
-0.37621  -7.036646  0.0
-0.324642  -6.834801  0.0
-0.375269  -6.885273  0.0
-0.323691  -6.683957  0.0
-0.374212  -6.734297  0.0
-0.322638  -6.533574  0.0
-0.373036  -6.583766  0.0
-0.321482  -6.3837  0.0
-0.371741  -6.433728  0.0
-0.320223  -6.234384  0.0
-0.370329  -6.284231  0.0
-0.318862  -6.085672  0.0
-0.368797  -6.135324  0.0
-0.317398  -5.937614  0.0
-0.367147  -5.987054  0.0
-0.315831  -5.790256  0.0
-0.365378  -5.839468  0.0
-0.314161  -5.643646  0.0
-0.363491  -5.692615  0.0
-0.312389  -5.497833  0.0
-0.361485  -5.546542  0.0
-0.310514  -5.352864  0.0
-0.35936  -5.401297  0.0
-0.308536  -5.208787  0.0
-0.357116  -5.256929  0.0
-0.306455  -5.065649  0.0
-0.354754  -5.113483  0.0
-0.304272  -4.923498  0.0
-0.352273  -4.971009  0.0
-0.301985  -4.782383  0.0
-0.349673  -4.829555  0.0
-0.299596  -4.64235  0.0
-0.346955  -4.689167  0.0
-0.297104  -4.503448  0.0
-0.344118  -4.549894  0.0
-0.29451  -4.365725  0.0
-0.341162  -4.411783  0.0
-0.291812  -4.229227  0.0
-0.338087  -4.274883  0.0
-0.289012  -4.094004  0.0
-0.334894  -4.139241  0.0
-0.286109  -3.960102  0.0
-0.331582  -4.004904  0.0
-0.283103  -3.82757  0.0
-0.328151  -3.871921  0.0
-0.279995  -3.696455  0.0
-0.324602  -3.74034  0.0
-0.276783  -3.566806  0.0
-0.320934  -3.610208  0.0
-0.273469  -3.438669  0.0
-0.317147  -3.481572  0.0
-0.270052  -3.312092  0.0
-0.313242  -3.354481  0.0
-0.266533  -3.187124  0.0
-0.309217  -3.228983  0.0
-0.26291  -3.063813  0.0
-0.305075  -3.105125  0.0
-0.259185  -2.942205  0.0
-0.300813  -2.982955  0.0
-0.255357  -2.822349  0.0
-0.296433  -2.862521  0.0
-0.251426  -2.704292  0.0
-0.291933  -2.74387  0.0
-0.247392  -2.588082  0.0
-0.287316  -2.62705  0.0
-0.243256  -2.473768  0.0
-0.282579  -2.51211  0.0
-0.239017  -2.361396  0.0
-0.277724  -2.399096  0.0
-0.234675  -2.251015  0.0
-0.27275  -2.288058  0.0
-0.23023  -2.142672  0.0
-0.267657  -2.179041  0.0
-0.225682  -2.036416  0.0
-0.262446  -2.072095  0.0
-0.221032  -1.932293  0.0
-0.257116  -1.967267  0.0
-0.216279  -1.830352  0.0
-0.251667  -1.864604  0.0
-0.211423  -1.73064  0.0
-0.2461  -1.764155  0.0
-0.206464  -1.633206  0.0
-0.240414  -1.665967  0.0
-0.201403  -1.538096  0.0
-0.234609  -1.570089  0.0
-0.196238  -1.44536  0.0
-0.228685  -1.476567  0.0
-0.190971  -1.355043  0.0
-0.222643  -1.385449  0.0
-0.185602  -1.267195  0.0
-0.216482  -1.296784  0.0
-0.180129  -1.181864  0.0
-0.210202  -1.21062  0.0
-0.174554  -1.099096  0.0
-0.203804  -1.127003  0.0
-0.168875  -1.018939  0.0
-0.197287  -1.045982  0.0
-0.163094  -0.941442  0.0
-0.190651  -0.967604  0.0
-0.157211  -0.866653  0.0
-0.183896  -0.891918  0.0
-0.151224  -0.794618  0.0
-0.177023  -0.81897  0.0
-0.145135  -0.725386  0.0
-0.170031  -0.74881  0.0
-0.138942  -0.659004  0.0
-0.16292  -0.681484  0.0
-0.132648  -0.595521  0.0
-0.155691  -0.61704  0.0
-0.12625  -0.534983  0.0
-0.148343  -0.555527  0.0
-0.119749  -0.47744  0.0
-0.140876  -0.496991  0.0
-0.113146  -0.422938  0.0
-0.13329  -0.441481  0.0
-0.10644  -0.371525  0.0
-0.125586  -0.389044  0.0
-0.099631  -0.32325  0.0
-0.117763  -0.339729  0.0
-0.09272  -0.27816  0.0
-0.109822  -0.293583  0.0
-0.085706  -0.236302  0.0
-0.101762  -0.250653  0.0
-0.078589  -0.197725  0.0
-0.093583  -0.210988  0.0
-0.07137  -0.162477  0.0
-0.085287  -0.174636  0.0
-0.06405  -0.130605  0.0
-0.076872  -0.141644  0.0
-0.056629  -0.102159  0.0
-0.068341  -0.112062  0.0
-0.049109  -0.077188  0.0
-0.059696  -0.085938  0.0
-0.041493  -0.055742  0.0
-0.050941  -0.063321  0.0
-0.033789  -0.037868  0.0
-0.042086  -0.04426  0.0
-0.026004  -0.023597  0.0
-0.03315  -0.028792  0.0
-0.018142  -0.012899  0.0
-0.024156  -0.016908  0.0
-0.010183  -0.005544  0.0
-0.015103  -0.008443  0.0
-0.002123  -0.000901  0.0
-0.005761  -0.002578  0.0
FIELD FieldData 2
Strain 3 640 double
1e-06 0.0 -4e-06 
-0.0 1e-06 -4e-06 
5e-06 -1e-06 -9e-06 
1e-06 0.0 -6e-06 
1e-05 -1e-06 -1.2e-05 
2e-06 -1e-06 -4e-06 
1.5e-05 -2e-06 -1.4e-05 
2e-06 -1e-06 -2e-06 
2e-05 -3e-06 -1.5e-05 
3e-06 -2e-06 0.0 
2.4e-05 -4e-06 -1.7e-05 
4e-06 -3e-06 3e-06 
2.9e-05 -5e-06 -1.9e-05 
4e-06 -4e-06 5e-06 
3.4e-05 -6e-06 -2.1e-05 
5e-06 -5e-06 7e-06 
3.8e-05 -6e-06 -2.3e-05 
6e-06 -6e-06 9e-06 
4.3e-05 -7e-06 -2.5e-05 
6e-06 -6e-06 1.1e-05 
4.7e-05 -8e-06 -2.7e-05 
7e-06 -7e-06 1.3e-05 
5.2e-05 -9e-06 -2.9e-05 
8e-06 -8e-06 1.5e-05 
5.6e-05 -9e-06 -3.1e-05 
8e-06 -9e-06 1.6e-05 
6.1e-05 -1e-05 -3.2e-05 
9e-06 -9e-06 1.8e-05 
6.5e-05 -1.1e-05 -3.4e-05 
1e-05 -1e-05 2e-05 
7e-05 -1.2e-05 -3.6e-05 
1.1e-05 -1.1e-05 2.2e-05 
7.4e-05 -1.3e-05 -3.8e-05 
1.1e-05 -1.2e-05 2.4e-05 
7.9e-05 -1.3e-05 -4e-05 
1.2e-05 -1.3e-05 2.6e-05 
8.3e-05 -1.4e-05 -4.2e-05 
1.3e-05 -1.3e-05 2.8e-05 
8.8e-05 -1.5e-05 -4.4e-05 
1.3e-05 -1.4e-05 3e-05 
9.2e-05 -1.6e-05 -4.6e-05 
1.4e-05 -1.5e-05 3.2e-05 
9.7e-05 -1.7e-05 -4.8e-05 
1.5e-05 -1.6e-05 3.4e-05 
0.000101 -1.7e-05 -5e-05 
1.5e-05 -1.7e-05 3.6e-05 
0.000106 -1.8e-05 -5.2e-05 
1.6e-05 -1.7e-05 3.7e-05 
0.00011 -1.9e-05 -5.4e-05 
1.7e-05 -1.8e-05 3.9e-05 
0.000115 -2e-05 -5.5e-05 
1.8e-05 -1.9e-05 4.1e-05 
0.000119 -2e-05 -5.7e-05 
1.8e-05 -2e-05 4.3e-05 
0.000124 -2.1e-05 -5.9e-05 
1.9e-05 -2e-05 4.5e-05 
0.000129 -2.2e-05 -6.1e-05 
2e-05 -2.1e-05 4.7e-05 
0.000133 -2.3e-05 -6.3e-05 
2e-05 -2.2e-05 4.9e-05 
0.000138 -2.4e-05 -6.5e-05 
2.1e-05 -2.3e-05 5.1e-05 
0.000142 -2.4e-05 -6.7e-05 
2.2e-05 -2.4e-05 5.3e-05 
0.000147 -2.5e-05 -6.9e-05 
2.2e-05 -2.4e-05 5.5e-05 
0.000151 -2.6e-05 -7.1e-05 
2.3e-05 -2.5e-05 5.7e-05 
0.000156 -2.7e-05 -7.3e-05 
2.4e-05 -2.6e-05 5.8e-05 
0.00016 -2.7e-05 -7.5e-05 
2.4e-05 -2.7e-05 6e-05 
0.000165 -2.8e-05 -7.6e-05 
2.5e-05 -2.7e-05 6.2e-05 
0.000169 -2.9e-05 -7.8e-05 
2.6e-05 -2.8e-05 6.4e-05 
0.000174 -3e-05 -8e-05 
2.7e-05 -2.9e-05 6.6e-05 
0.000178 -3.1e-05 -8.2e-05 
2.7e-05 -3e-05 6.8e-05 
0.000183 -3.1e-05 -8.4e-05 
2.8e-05 -3.1e-05 7e-05 
0.000187 -3.2e-05 -8.6e-05 
2.9e-05 -3.1e-05 7.2e-05 
0.000192 -3.3e-05 -8.8e-05 
2.9e-05 -3.2e-05 7.4e-05 
0.000196 -3.4e-05 -9e-05 
3e-05 -3.3e-05 7.6e-05 
0.000201 -3.4e-05 -9.2e-05 
3.1e-05 -3.4e-05 7.8e-05 
0.000205 -3.5e-05 -9.4e-05 
3.1e-05 -3.4e-05 7.9e-05 
0.00021 -3.6e-05 -9.6e-05 
3.2e-05 -3.5e-05 8.1e-05 
0.000214 -3.7e-05 -9.7e-05 
3.3e-05 -3.6e-05 8.3e-05 
0.000219 -3.8e-05 -9.9e-05 
3.3e-05 -3.7e-05 8.5e-05 
0.000223 -3.8e-05 -0.000101 
3.4e-05 -3.8e-05 8.7e-05 
0.000228 -3.9e-05 -0.000103 
3.5e-05 -3.8e-05 8.9e-05 
0.000232 -4e-05 -0.000105 
3.6e-05 -3.9e-05 9.1e-05 
0.000237 -4.1e-05 -0.000107 
3.6e-05 -4e-05 9.3e-05 
0.000241 -4.2e-05 -0.000109 
3.7e-05 -4.1e-05 9.5e-05 
0.000246 -4.2e-05 -0.000111 
3.8e-05 -4.2e-05 9.7e-05 
0.00025 -4.3e-05 -0.000113 
3.8e-05 -4.2e-05 9.9e-05 
0.000255 -4.4e-05 -0.000115 
3.9e-05 -4.3e-05 0.000101 
0.00026 -4.5e-05 -0.000117 
4e-05 -4.4e-05 0.000102 
0.000264 -4.5e-05 -0.000118 
4e-05 -4.5e-05 0.000104 
0.000269 -4.6e-05 -0.00012 
4.1e-05 -4.5e-05 0.000106 
0.000273 -4.7e-05 -0.000122 
4.2e-05 -4.6e-05 0.000108 
0.000278 -4.8e-05 -0.000124 
4.3e-05 -4.7e-05 0.00011 
0.000282 -4.9e-05 -0.000126 
4.3e-05 -4.8e-05 0.000112 
0.000287 -4.9e-05 -0.000128 
4.4e-05 -4.9e-05 0.000114 
0.000291 -5e-05 -0.00013 
4.5e-05 -4.9e-05 0.000116 
0.000296 -5.1e-05 -0.000132 
4.5e-05 -5e-05 0.000118 
0.0003 -5.2e-05 -0.000134 
4.6e-05 -5.1e-05 0.00012 
0.000305 -5.2e-05 -0.000136 
4.7e-05 -5.2e-05 0.000122 
0.000309 -5.3e-05 -0.000138 
4.7e-05 -5.2e-05 0.000123 
0.000314 -5.4e-05 -0.00014 
4.8e-05 -5.3e-05 0.000125 
0.000318 -5.5e-05 -0.000141 
4.9e-05 -5.4e-05 0.000127 
0.000323 -5.6e-05 -0.000143 
4.9e-05 -5.5e-05 0.000129 
0.000327 -5.6e-05 -0.000145 
5e-05 -5.6e-05 0.000131 
0.000332 -5.7e-05 -0.000148 
5.1e-05 -5.6e-05 0.000133 
0.000337 -5.8e-05 -0.00015 
5.1e-05 -5.7e-05 0.000135 
0.000342 -5.9e-05 -0.000153 
5.2e-05 -5.8e-05 0.000136 
0.000347 -5.9e-05 -0.000156 
5.2e-05 -5.9e-05 0.000138 
0.000353 -6e-05 -0.000159 
5.3e-05 -5.9e-05 0.00014 
0.000358 -5.9e-05 -0.000164 
5.3e-05 -6e-05 0.000143 
0.000342 0.0 -0.000185 
5.7e-05 -5.9e-05 0.000159 
-0.0 3e-06 -6e-06 
-2e-06 6e-06 -7e-06 
1e-06 1e-06 -1.1e-05 
-3e-06 3e-06 -8e-06 
2e-06 2e-06 -1.4e-05 
-6e-06 1e-06 -6e-06 
2e-06 2e-06 -1.6e-05 
-1e-05 2e-06 -3e-06 
3e-06 2e-06 -1.8e-05 
-1.4e-05 2e-06 -1e-06 
4e-06 3e-06 -2e-05 
-1.7e-05 2e-06 2e-06 
4e-06 3e-06 -2.1e-05 
-2e-05 3e-06 4e-06 
5e-06 4e-06 -2.3e-05 
-2.4e-05 3e-06 6e-06 
6e-06 4e-06 -2.5e-05 
-2.7e-05 4e-06 8e-06 
6e-06 4e-06 -2.7e-05 
-3e-05 4e-06 9e-06 
7e-06 5e-06 -2.9e-05 
-3.3e-05 4e-06 1.1e-05 
8e-06 5e-06 -3.1e-05 
-3.6e-05 5e-06 1.3e-05 
8e-06 5e-06 -3.3e-05 
-3.9e-05 5e-06 1.5e-05 
9e-06 6e-06 -3.5e-05 
-4.2e-05 5e-06 1.7e-05 
1e-05 6e-06 -3.7e-05 
-4.6e-05 6e-06 1.9e-05 
1.1e-05 7e-06 -3.9e-05 
-4.9e-05 6e-06 2.1e-05 
1.1e-05 7e-06 -4.1e-05 
-5.2e-05 7e-06 2.3e-05 
1.2e-05 7e-06 -4.3e-05 
-5.5e-05 7e-06 2.5e-05 
1.3e-05 8e-06 -4.4e-05 
-5.8e-05 7e-06 2.7e-05 
1.3e-05 8e-06 -4.6e-05 
-6.1e-05 8e-06 2.9e-05 
1.4e-05 8e-06 -4.8e-05 
-6.4e-05 8e-06 3e-05 
1.5e-05 9e-06 -5e-05 
-6.7e-05 8e-06 3.2e-05 
1.5e-05 9e-06 -5.2e-05 
-7.1e-05 9e-06 3.4e-05 
1.6e-05 9e-06 -5.4e-05 
-7.4e-05 9e-06 3.6e-05 
1.7e-05 1e-05 -5.6e-05 
-7.7e-05 9e-06 3.8e-05 
1.8e-05 1e-05 -5.8e-05 
-8e-05 1e-05 4e-05 
1.8e-05 1.1e-05 -6e-05 
-8.3e-05 1e-05 4.2e-05 
1.9e-05 1.1e-05 -6.2e-05 
-8.6e-05 1.1e-05 4.4e-05 
2e-05 1.1e-05 -6.4e-05 
-8.9e-05 1.1e-05 4.6e-05 
2e-05 1.2e-05 -6.5e-05 
-9.2e-05 1.1e-05 4.8e-05 
2.1e-05 1.2e-05 -6.7e-05 
-9.6e-05 1.2e-05 5e-05 
2.2e-05 1.2e-05 -6.9e-05 
-9.9e-05 1.2e-05 5.1e-05 
2.2e-05 1.3e-05 -7.1e-05 
-0.000102 1.2e-05 5.3e-05 
2.3e-05 1.3e-05 -7.3e-05 
-0.000105 1.3e-05 5.5e-05 
2.4e-05 1.3e-05 -7.5e-05 
-0.000108 1.3e-05 5.7e-05 
2.4e-05 1.4e-05 -7.7e-05 
-0.000111 1.3e-05 5.9e-05 
2.5e-05 1.4e-05 -7.9e-05 
-0.000114 1.4e-05 6.1e-05 
2.6e-05 1.5e-05 -8.1e-05 
-0.000117 1.4e-05 6.3e-05 
2.7e-05 1.5e-05 -8.3e-05 
-0.000121 1.5e-05 6.5e-05 
2.7e-05 1.5e-05 -8.5e-05 
-0.000124 1.5e-05 6.7e-05 
2.8e-05 1.6e-05 -8.6e-05 
-0.000127 1.5e-05 6.9e-05 
2.9e-05 1.6e-05 -8.8e-05 
-0.00013 1.6e-05 7.1e-05 
2.9e-05 1.6e-05 -9e-05 
-0.000133 1.6e-05 7.3e-05 
3e-05 1.7e-05 -9.2e-05 
-0.000136 1.6e-05 7.4e-05 
3.1e-05 1.7e-05 -9.4e-05 
-0.000139 1.7e-05 7.6e-05 
3.1e-05 1.7e-05 -9.6e-05 
-0.000142 1.7e-05 7.8e-05 
3.2e-05 1.8e-05 -9.8e-05 
-0.000146 1.7e-05 8e-05 
3.3e-05 1.8e-05 -0.0001 
-0.000149 1.8e-05 8.2e-05 
3.3e-05 1.9e-05 -0.000102 
-0.000152 1.8e-05 8.4e-05 
3.4e-05 1.9e-05 -0.000104 
-0.000155 1.9e-05 8.6e-05 
3.5e-05 1.9e-05 -0.000106 
-0.000158 1.9e-05 8.8e-05 
3.6e-05 2e-05 -0.000107 
-0.000161 1.9e-05 9e-05 
3.6e-05 2e-05 -0.000109 
-0.000164 2e-05 9.2e-05 
3.7e-05 2e-05 -0.000111 
-0.000167 2e-05 9.4e-05 
3.8e-05 2.1e-05 -0.000113 
-0.000171 2e-05 9.5e-05 
3.8e-05 2.1e-05 -0.000115 
-0.000174 2.1e-05 9.7e-05 
3.9e-05 2.1e-05 -0.000117 
-0.000177 2.1e-05 9.9e-05 
4e-05 2.2e-05 -0.000119 
-0.00018 2.1e-05 0.000101 
4e-05 2.2e-05 -0.000121 
-0.000183 2.2e-05 0.000103 
4.1e-05 2.3e-05 -0.000123 
-0.000186 2.2e-05 0.000105 
4.2e-05 2.3e-05 -0.000125 
-0.000189 2.3e-05 0.000107 
4.3e-05 2.3e-05 -0.000127 
-0.000193 2.3e-05 0.000109 
4.3e-05 2.4e-05 -0.000128 
-0.000196 2.3e-05 0.000111 
4.4e-05 2.4e-05 -0.00013 
-0.000199 2.4e-05 0.000113 
4.5e-05 2.4e-05 -0.000132 
-0.000202 2.4e-05 0.000115 
4.5e-05 2.5e-05 -0.000134 
-0.000205 2.4e-05 0.000116 
4.6e-05 2.5e-05 -0.000136 
-0.000208 2.5e-05 0.000118 
4.7e-05 2.5e-05 -0.000138 
-0.000211 2.5e-05 0.00012 
4.7e-05 2.6e-05 -0.00014 
-0.000214 2.5e-05 0.000122 
4.8e-05 2.6e-05 -0.000142 
-0.000218 2.6e-05 0.000124 
4.9e-05 2.7e-05 -0.000144 
-0.000221 2.6e-05 0.000126 
4.9e-05 2.7e-05 -0.000146 
-0.000224 2.7e-05 0.000128 
5e-05 2.7e-05 -0.000148 
-0.000227 2.7e-05 0.00013 
5.1e-05 2.8e-05 -0.00015 
-0.00023 2.7e-05 0.000132 
5.1e-05 2.8e-05 -0.000152 
-0.000234 2.8e-05 0.000134 
5.2e-05 2.9e-05 -0.000154 
-0.000237 2.8e-05 0.000136 
5.2e-05 2.9e-05 -0.000156 
-0.000241 2.9e-05 0.000138 
5.3e-05 2.8e-05 -0.000157 
-0.000244 2.9e-05 0.000139 
5.3e-05 2.4e-05 -0.000151 
-0.000244 2.8e-05 0.000142 
5.7e-05 0.0 -0.000126 
-0.000239 2.4e-05 0.000146 
-2e-06 2.5e-05 -2.3e-05 
-1.5e-05 8.7e-05 -7.3e-05 
-3e-06 6e-06 -3e-05 
-1.1e-05 2.5e-05 -4.1e-05 
-6e-06 4e-06 -3.3e-05 
-1.7e-05 6e-06 -2.6e-05 
-1e-05 5e-06 -3.7e-05 
-2.4e-05 4e-06 -2.1e-05 
-1.4e-05 7e-06 -4e-05 
-3.2e-05 5e-06 -2e-05 
-1.7e-05 9e-06 -4.3e-05 
-3.9e-05 7e-06 -1.9e-05 
-2e-05 1.1e-05 -4.6e-05 
-4.6e-05 9e-06 -1.9e-05 
-2.4e-05 1.3e-05 -4.8e-05 
-5.3e-05 1.1e-05 -1.7e-05 
-2.7e-05 1.4e-05 -5e-05 
-5.9e-05 1.3e-05 -1.6e-05 
-3e-05 1.6e-05 -5.2e-05 
-6.6e-05 1.4e-05 -1.4e-05 
-3.3e-05 1.7e-05 -5.4e-05 
-7.3e-05 1.6e-05 -1.2e-05 
-3.6e-05 1.9e-05 -5.6e-05 
-8e-05 1.7e-05 -1e-05 
-3.9e-05 2e-05 -5.8e-05 
-8.7e-05 1.9e-05 -9e-06 
-4.2e-05 2.2e-05 -6e-05 
-9.4e-05 2e-05 -7e-06 
-4.6e-05 2.3e-05 -6.2e-05 
-0.000101 2.2e-05 -5e-06 
-4.9e-05 2.5e-05 -6.4e-05 
-0.000108 2.3e-05 -3e-06 
-5.2e-05 2.6e-05 -6.6e-05 
-0.000115 2.5e-05 -1e-06 
-5.5e-05 2.8e-05 -6.7e-05 
-0.000122 2.6e-05 1e-06 
-5.8e-05 2.9e-05 -6.9e-05 
-0.000129 2.8e-05 3e-06 
-6.1e-05 3.1e-05 -7.1e-05 
-0.000136 2.9e-05 5e-06 
-6.4e-05 3.2e-05 -7.3e-05 
-0.000143 3.1e-05 7e-06 
-6.7e-05 3.4e-05 -7.5e-05 
-0.00015 3.2e-05 9e-06 
-7.1e-05 3.5e-05 -7.7e-05 
-0.000157 3.4e-05 1e-05 
-7.4e-05 3.7e-05 -7.9e-05 
-0.000164 3.5e-05 1.2e-05 
-7.7e-05 3.8e-05 -8.1e-05 
-0.00017 3.7e-05 1.4e-05 
-8e-05 4e-05 -8.3e-05 
-0.000177 3.8e-05 1.6e-05 
-8.3e-05 4.1e-05 -8.5e-05 
-0.000184 4e-05 1.8e-05 
-8.6e-05 4.3e-05 -8.7e-05 
-0.000191 4.1e-05 2e-05 
-8.9e-05 4.5e-05 -8.8e-05 
-0.000198 4.3e-05 2.2e-05 
-9.2e-05 4.6e-05 -9e-05 
-0.000205 4.5e-05 2.4e-05 
-9.6e-05 4.8e-05 -9.2e-05 
-0.000212 4.6e-05 2.6e-05 
-9.9e-05 4.9e-05 -9.4e-05 
-0.000219 4.8e-05 2.8e-05 
-0.000102 5.1e-05 -9.6e-05 
-0.000226 4.9e-05 3e-05 
-0.000105 5.2e-05 -9.8e-05 
-0.000233 5.1e-05 3.2e-05 
-0.000108 5.4e-05 -0.0001 
-0.00024 5.2e-05 3.3e-05 
-0.000111 5.5e-05 -0.000102 
-0.000247 5.4e-05 3.5e-05 
-0.000114 5.7e-05 -0.000104 
-0.000254 5.5e-05 3.7e-05 
-0.000117 5.8e-05 -0.000106 
-0.000261 5.7e-05 3.9e-05 
-0.000121 6e-05 -0.000108 
-0.000268 5.8e-05 4.1e-05 
-0.000124 6.1e-05 -0.00011 
-0.000275 6e-05 4.3e-05 
-0.000127 6.3e-05 -0.000111 
-0.000282 6.1e-05 4.5e-05 
-0.00013 6.4e-05 -0.000113 
-0.000289 6.3e-05 4.7e-05 
-0.000133 6.6e-05 -0.000115 
-0.000296 6.4e-05 4.9e-05 
-0.000136 6.7e-05 -0.000117 
-0.000302 6.6e-05 5.1e-05 
-0.000139 6.9e-05 -0.000119 
-0.000309 6.7e-05 5.3e-05 
-0.000142 7e-05 -0.000121 
-0.000316 6.9e-05 5.4e-05 
-0.000146 7.2e-05 -0.000123 
-0.000323 7e-05 5.6e-05 
-0.000149 7.3e-05 -0.000125 
-0.00033 7.2e-05 5.8e-05 
-0.000152 7.5e-05 -0.000127 
-0.000337 7.3e-05 6e-05 
-0.000155 7.6e-05 -0.000129 
-0.000344 7.5e-05 6.2e-05 
-0.000158 7.8e-05 -0.000131 
-0.000351 7.6e-05 6.4e-05 
-0.000161 7.9e-05 -0.000132 
-0.000358 7.8e-05 6.6e-05 
-0.000164 8.1e-05 -0.000134 
-0.000365 7.9e-05 6.8e-05 
-0.000167 8.2e-05 -0.000136 
-0.000372 8.1e-05 7e-05 
-0.000171 8.4e-05 -0.000138 
-0.000379 8.2e-05 7.2e-05 
-0.000174 8.5e-05 -0.00014 
-0.000386 8.4e-05 7.4e-05 
-0.000177 8.7e-05 -0.000142 
-0.000393 8.5e-05 7.5e-05 
-0.00018 8.8e-05 -0.000144 
-0.0004 8.7e-05 7.7e-05 
-0.000183 9e-05 -0.000146 
-0.000407 8.8e-05 7.9e-05 
-0.000186 9.1e-05 -0.000148 
-0.000414 9e-05 8.1e-05 
-0.000189 9.3e-05 -0.00015 
-0.000421 9.1e-05 8.3e-05 
-0.000193 9.4e-05 -0.000152 
-0.000428 9.3e-05 8.5e-05 
-0.000196 9.6e-05 -0.000153 
-0.000435 9.4e-05 8.7e-05 
-0.000199 9.7e-05 -0.000155 
-0.000441 9.6e-05 8.9e-05 
-0.000202 9.9e-05 -0.000157 
-0.000448 9.7e-05 9.1e-05 
-0.000205 0.0001 -0.000159 
-0.000455 9.9e-05 9.3e-05 
-0.000208 0.000102 -0.000161 
-0.000462 0.0001 9.5e-05 
-0.000211 0.000103 -0.000163 
-0.000469 0.000102 9.7e-05 
-0.000214 0.000105 -0.000165 
-0.000476 0.000103 9.8e-05 
-0.000218 0.000107 -0.000167 
-0.000483 0.000105 0.0001 
-0.000221 0.000108 -0.000168 
-0.00049 0.000107 0.000102 
-0.000224 0.00011 -0.00017 
-0.000497 0.000108 0.000105 
-0.000227 0.000111 -0.000171 
-0.000504 0.00011 0.000107 
-0.00023 0.000113 -0.000172 
-0.00051 0.000111 0.00011 
-0.000234 0.000116 -0.000173 
-0.000517 0.000113 0.000113 
-0.000237 0.000118 -0.000172 
-0.000524 0.000116 0.000117 
-0.000241 0.000119 -0.000172 
-0.000532 0.000118 0.000119 
-0.000244 0.00011 -0.000174 
-0.000541 0.000119 0.000114 
-0.000244 6.6e-05 -0.000181 
-0.000552 0.00011 8.2e-05 
-0.000239 0.0 -0.000151 
-0.00051 6.6e-05 5.4e-05 
-1.5e-05 2.4e-05 -2.5e-05 
-7e-05 0.000138 -8.3e-05 
-1.1e-05 9e-06 -1.3e-05 
-4.4e-05 2.4e-05 4e-06 
-1.7e-05 8e-06 -1.4e-05 
-4e-05 9e-06 9e-06 
-2.4e-05 1.1e-05 -1.9e-05 
-4.4e-05 8e-06 3e-06 
-3.2e-05 1.4e-05 -2.3e-05 
-5.1e-05 1.1e-05 -0.0 
-3.9e-05 1.7e-05 -2.6e-05 
-6.1e-05 1.4e-05 -1e-06 
-4.6e-05 1.9e-05 -2.8e-05 
-7.1e-05 1.7e-05 -1e-06 
-5.3e-05 2.2e-05 -3.1e-05 
-8.1e-05 1.9e-05 1e-06 
-5.9e-05 2.5e-05 -3.3e-05 
-9.2e-05 2.2e-05 3e-06 
-6.6e-05 2.7e-05 -3.5e-05 
-0.000103 2.5e-05 4e-06 
-7.3e-05 3e-05 -3.7e-05 
-0.000113 2.7e-05 6e-06 
-8e-05 3.3e-05 -3.8e-05 
-0.000124 3e-05 8e-06 
-8.7e-05 3.5e-05 -4e-05 
-0.000135 3.3e-05 1e-05 
-9.4e-05 3.8e-05 -4.2e-05 
-0.000146 3.5e-05 1.2e-05 
-0.000101 4.1e-05 -4.4e-05 
-0.000156 3.8e-05 1.4e-05 
-0.000108 4.3e-05 -4.6e-05 
-0.000167 4.1e-05 1.6e-05 
-0.000115 4.6e-05 -4.8e-05 
-0.000178 4.3e-05 1.8e-05 
-0.000122 4.9e-05 -5e-05 
-0.000189 4.6e-05 2e-05 
-0.000129 5.1e-05 -5.2e-05 
-0.000199 4.9e-05 2.1e-05 
-0.000136 5.4e-05 -5.4e-05 
-0.00021 5.1e-05 2.3e-05 
-0.000143 5.6e-05 -5.6e-05 
-0.000221 5.4e-05 2.5e-05 
-0.00015 5.9e-05 -5.8e-05 
-0.000232 5.6e-05 2.7e-05 
-0.000157 6.2e-05 -6e-05 
-0.000243 5.9e-05 2.9e-05 
-0.000164 6.4e-05 -6.1e-05 
-0.000253 6.2e-05 3.1e-05 
-0.00017 6.7e-05 -6.3e-05 
-0.000264 6.4e-05 3.3e-05 
-0.000177 7e-05 -6.5e-05 
-0.000275 6.7e-05 3.5e-05 
-0.000184 7.2e-05 -6.7e-05 
-0.000286 7e-05 3.7e-05 
-0.000191 7.5e-05 -6.9e-05 
-0.000296 7.2e-05 3.9e-05 
-0.000198 7.8e-05 -7.1e-05 
-0.000307 7.5e-05 4.1e-05 
-0.000205 8e-05 -7.3e-05 
-0.000318 7.8e-05 4.2e-05 
-0.000212 8.3e-05 -7.5e-05 
-0.000329 8e-05 4.4e-05 
-0.000219 8.6e-05 -7.7e-05 
-0.000339 8.3e-05 4.6e-05 
-0.000226 8.8e-05 -7.9e-05 
-0.00035 8.6e-05 4.8e-05 
-0.000233 9.1e-05 -8.1e-05 
-0.000361 8.8e-05 5e-05 
-0.00024 9.4e-05 -8.2e-05 
-0.000372 9.1e-05 5.2e-05 
-0.000247 9.6e-05 -8.4e-05 
-0.000383 9.4e-05 5.4e-05 
-0.000254 9.9e-05 -8.6e-05 
-0.000393 9.6e-05 5.6e-05 
-0.000261 0.000102 -8.8e-05 
-0.000404 9.9e-05 5.8e-05 
-0.000268 0.000104 -9e-05 
-0.000415 0.000102 6e-05 
-0.000275 0.000107 -9.2e-05 
-0.000426 0.000104 6.2e-05 
-0.000282 0.00011 -9.4e-05 
-0.000436 0.000107 6.4e-05 
-0.000289 0.000112 -9.6e-05 
-0.000447 0.00011 6.5e-05 
-0.000296 0.000115 -9.8e-05 
-0.000458 0.000112 6.7e-05 
-0.000302 0.000118 -0.0001 
-0.000469 0.000115 6.9e-05 
-0.000309 0.00012 -0.000102 
-0.00048 0.000118 7.1e-05 
-0.000316 0.000123 -0.000103 
-0.00049 0.00012 7.3e-05 
-0.000323 0.000126 -0.000105 
-0.000501 0.000123 7.5e-05 
-0.00033 0.000128 -0.000107 
-0.000512 0.000126 7.7e-05 
-0.000337 0.000131 -0.000109 
-0.000523 0.000128 7.9e-05 
-0.000344 0.000134 -0.000111 
-0.000533 0.000131 8.1e-05 
-0.000351 0.000136 -0.000113 
-0.000544 0.000134 8.3e-05 
-0.000358 0.000139 -0.000115 
-0.000555 0.000136 8.5e-05 
-0.000365 0.000142 -0.000117 
-0.000566 0.000139 8.6e-05 
-0.000372 0.000144 -0.000119 
-0.000576 0.000142 8.8e-05 
-0.000379 0.000147 -0.000121 
-0.000587 0.000144 9e-05 
-0.000386 0.00015 -0.000123 
-0.000598 0.000147 9.2e-05 
-0.000393 0.000152 -0.000125 
-0.000609 0.00015 9.4e-05 
-0.0004 0.000155 -0.000126 
-0.00062 0.000152 9.6e-05 
-0.000407 0.000158 -0.000128 
-0.00063 0.000155 9.8e-05 
-0.000414 0.00016 -0.00013 
-0.000641 0.000158 0.0001 
-0.000421 0.000163 -0.000132 
-0.000652 0.00016 0.000102 
-0.000428 0.000165 -0.000134 
-0.000663 0.000163 0.000104 
-0.000435 0.000168 -0.000136 
-0.000673 0.000165 0.000106 
-0.000441 0.000171 -0.000138 
-0.000684 0.000168 0.000107 
-0.000448 0.000173 -0.00014 
-0.000695 0.000171 0.000109 
-0.000455 0.000176 -0.000142 
-0.000706 0.000173 0.000111 
-0.000462 0.000179 -0.000144 
-0.000716 0.000176 0.000113 
-0.000469 0.000181 -0.000146 
-0.000727 0.000179 0.000115 
-0.000476 0.000184 -0.000147 
-0.000738 0.000181 0.000117 
-0.000483 0.000187 -0.000149 
-0.000749 0.000184 0.000119 
-0.00049 0.000189 -0.000151 
-0.000759 0.000187 0.000121 
-0.000497 0.000192 -0.000153 
-0.00077 0.000189 0.000123 
-0.000504 0.000195 -0.000154 
-0.000781 0.000192 0.000125 
-0.00051 0.000197 -0.000155 
-0.000791 0.000195 0.000128 
-0.000517 0.000199 -0.000155 
-0.0008 0.000197 0.000131 
-0.000524 0.000201 -0.000151 
-0.000808 0.000199 0.000134 
-0.000532 0.000202 -0.000143 
-0.000813 0.000201 0.000139 
-0.000541 0.0002 -0.000131 
-0.000814 0.000202 0.00014 
-0.000552 0.000186 -0.000132 
-0.000817 0.0002 0.00012 
-0.00051 0.0 -0.000216 
-0.000873 0.000186 -3.9e-05 
Stress 3 640 double
14.813819 9.360691 -15.857349 
4.441191 15.857349 -14.813819 
53.102088 10.523317 -33.874231 
12.465485 8.656191 -22.430919 
103.618149 16.216207 -44.238163 
17.493081 -0.159385 -16.641831 
155.424266 23.059447 -52.064849 
21.599054 -8.389521 -7.567954 
205.916609 29.94853 -59.272634 
25.72057 -15.851662 1.572505 
255.047804 36.65365 -66.425873 
30.10387 -22.795291 10.141439 
303.262518 43.193506 -73.639611 
34.735931 -29.439912 18.211159 
350.942587 49.626228 -80.91093 
39.543536 -35.922188 25.959542 
398.330042 55.99736 -88.218742 
44.460442 -42.318415 33.523474 
445.561853 62.334967 -95.546758 
49.441031 -48.669344 40.986931 
492.711699 68.654763 -102.885339 
54.457342 -54.996386 48.396912 
539.818389 74.965168 -110.229331 
59.493256 -61.31077 55.778649 
586.902257 81.270621 -117.576092 
64.539801 -67.618408 63.145462 
633.973991 87.573451 -124.92428 
69.592075 -73.922433 70.504358 
681.039237 93.874883 -132.273214 
74.647431 -80.224517 77.859034 
728.101002 100.175568 -139.622542 
79.704444 -86.525555 85.211449 
775.160894 106.47585 -146.972081 
84.762346 -92.826029 92.56265 
822.219777 112.775917 -154.321731 
89.820728 -99.126199 99.913198 
869.278115 119.075868 -161.671443 
94.879368 -105.426206 107.263393 
916.33616 125.375755 -169.021188 
99.938147 -111.726123 114.613399 
963.394046 131.675609 -176.37095 
104.997 -118.025993 121.963301 
1010.451847 137.975444 -183.720721 
110.055895 -124.325837 129.313149 
1057.509601 144.275269 -191.070498 
115.114811 -130.625667 136.662967 
1104.567331 150.575089 -198.420278 
120.173738 -136.92549 144.012768 
1151.625047 156.874907 -205.770059 
125.232672 -143.225308 151.362561 
1198.682756 163.174722 -213.119841 
130.29161 -149.525125 158.71235 
1245.740461 169.474537 -220.469623 
135.350549 -155.82494 166.062136 
1292.798164 175.774351 -227.819406 
140.409489 -162.124755 173.41192 
1339.855866 182.074166 -235.169188 
145.46843 -168.424569 180.761704 
1386.913568 188.37398 -242.518971 
150.527371 -174.724383 188.111487 
1433.971268 194.673794 -249.868754 
155.586312 -181.024197 195.46127 
1481.028969 200.973608 -257.218537 
160.645254 -187.324011 202.811053 
1528.08667 207.273421 -264.56832 
165.704195 -193.623825 210.160836 
1575.144371 213.573235 -271.918102 
170.763137 -199.923639 217.510619 
1622.202071 219.873049 -279.267885 
175.822078 -206.223452 224.860402 
1669.259772 226.172863 -286.617668 
180.881019 -212.523266 232.210185 
1716.317472 232.472677 -293.967451 
185.939961 -218.82308 239.559968 
1763.375173 238.772491 -301.317234 
190.998902 -225.122894 246.90975 
1810.432873 245.072305 -308.667017 
196.057844 -231.422708 254.259533 
1857.490574 251.372119 -316.016799 
201.116785 -237.722522 261.609316 
1904.548274 257.671932 -323.366582 
206.175727 -244.022336 268.959099 
1951.605975 263.971746 -330.716365 
211.234668 -250.32215 276.308882 
1998.663676 270.27156 -338.066148 
216.293609 -256.621963 283.658665 
2045.721376 276.571374 -345.415931 
221.352551 -262.921777 291.008447 
2092.779077 282.871188 -352.765714 
226.411492 -269.221591 298.35823 
2139.836777 289.171002 -360.115497 
231.470434 -275.521405 305.708013 
2186.894478 295.470816 -367.465279 
236.529375 -281.821219 313.057796 
2233.952179 301.77063 -374.815062 
241.588317 -288.121033 320.407579 
2281.009879 308.070444 -382.164845 
246.647258 -294.420847 327.757362 
2328.06758 314.370258 -389.514628 
251.706199 -300.72066 335.107144 
2375.125281 320.670072 -396.864411 
256.765141 -307.020474 342.456927 
2422.182983 326.969886 -404.214195 
261.824082 -313.320288 349.80671 
2469.240685 333.269701 -411.563979 
266.883022 -319.620102 357.156493 
2516.298389 339.569516 -418.913764 
271.941962 -325.919916 364.506275 
2563.356095 345.869334 -426.26355 
277.000901 -332.21973 371.856057 
2610.413807 352.169153 -433.61334 
282.059838 -338.519544 379.205839 
2657.471527 358.468978 -440.963136 
287.11877 -344.819357 386.55562 
2704.529266 364.768813 -448.312944 
292.177695 -351.119171 393.905398 
2751.587036 371.068665 -455.662772 
297.236605 -357.418985 401.255173 
2798.644866 377.36855 -463.012638 
302.29549 -363.718799 408.604942 
2845.702806 383.668495 -470.362576 
307.354325 -370.018612 415.954698 
2892.76095 389.968552 -477.712646 
312.41307 -376.318426 423.304431 
2939.819473 396.268815 -485.062959 
317.471648 -382.618239 430.654123 
2986.878693 402.569461 -492.413723 
322.529918 -388.918051 438.003739 
3033.939204 408.870817 -499.765321 
327.587615 -395.217863 445.353213 
3081.002101 415.173507 -507.118468 
332.644249 -401.51767 452.702424 
3128.069427 421.478742 -514.474519 
337.698886 -407.817457 460.051142 
3175.145039 427.78893 -521.83609 
342.749721 -414.11717 467.398907 
3222.236363 434.10903 -529.208388 
347.793164 -420.416632 474.744766 
3269.358106 440.449484 -536.602098 
352.821864 -426.71532 482.086645 
3316.540348 446.832514 -544.039757 
357.820407 -433.011825 489.419857 
3363.846417 453.304692 -551.569533 
362.756171 -439.302738 496.733688 
3411.411868 459.95875 -559.29333 
367.561125 -445.580895 504.004082 
3459.525133 466.959876 -567.417412 
372.100474 -451.834668 511.180066 
3508.776428 474.538225 -576.320398 
376.135916 -458.05689 518.166117 
3560.266751 482.836747 -586.567651 
379.345774 -464.290972 524.830075 
3615.661411 491.651968 -598.644133 
381.610042 -470.760265 531.172991 
3676.245766 502.486377 -612.35743 
383.692615 -477.938671 538.059778 
3739.978938 536.897635 -629.854365 
384.659704 -484.989442 548.624258 
3757.995858 1127.398757 -710.577958 
429.740017 -456.174042 611.837445 
7.990582 27.688651 -23.621505 
-5.152544 54.292673 -27.245592 
15.774748 19.687067 -42.773377 
-27.314243 17.097204 -30.475224 
24.376083 22.783957 -53.087346 
-65.842994 -4.798255 -21.371614 
32.860404 29.148314 -60.858298 
-105.771094 -16.260196 -11.309065 
41.294474 36.061352 -68.118652 
-143.702757 -23.820634 -2.189632 
49.797206 42.849161 -75.360839 
-179.692896 -30.234859 6.101425 
58.401179 49.444247 -82.653675 
-214.407686 -36.412307 13.910092 
67.091668 55.90492 -89.981271 
-248.39203 -42.593715 21.475511 
75.842515 62.288494 -97.324781 
-281.983166 -48.81753 28.926063 
84.631211 68.631256 -104.673961 
-315.368316 -55.074755 36.323684 
93.442191 74.953112 -112.024578 
-348.646438 -61.352039 43.696825 
102.265789 81.26434 -119.375241 
-381.868825 -67.640193 51.058375 
111.096363 87.570134 -126.725643 
-415.061984 -73.933992 58.414254 
119.930739 93.873113 -134.075802 
-448.23969 -80.230682 65.767259 
128.767172 100.174617 -141.425798 
-481.409166 -86.528858 73.118767 
137.604711 106.475338 -148.775697 
-514.574235 -92.827805 80.469481 
146.442847 112.775641 -156.125543 
-547.736935 -99.127156 87.819767 
155.281303 119.075718 -163.475359 
-580.898359 -105.426721 95.169822 
164.119932 125.375674 -170.82516 
-614.059095 -111.726401 102.519752 
172.958653 131.675565 -178.174952 
-647.219459 -118.026143 109.869615 
181.797424 137.97542 -185.52474 
-680.379623 -124.325918 117.219441 
190.636223 144.275257 -192.874526 
-713.539679 -130.625711 124.569247 
199.475035 150.575083 -200.22431 
-746.699677 -136.925513 131.919042 
208.313856 156.874903 -207.574093 
-779.859643 -143.225321 139.268832 
217.152681 163.17472 -214.923877 
-813.019592 -149.525132 146.618618 
225.991508 169.474536 -222.27366 
-846.179532 -155.824944 153.968403 
234.830336 175.774351 -229.623443 
-879.339467 -162.124757 161.318187 
243.669165 182.074165 -236.973226 
-912.4994 -168.42457 168.66797 
252.507995 188.373979 -244.323009 
-945.659331 -174.724383 176.017754 
261.346824 194.673794 -251.672791 
-978.819261 -181.024197 183.367537 
270.185654 200.973607 -259.022574 
-1011.979191 -187.324011 190.71732 
279.024483 207.273421 -266.372357 
-1045.13912 -193.623825 198.067102 
287.863313 213.573235 -273.72214 
-1078.29905 -199.923639 205.416885 
296.702143 219.873049 -281.071923 
-1111.458979 -206.223452 212.766668 
305.540973 226.172863 -288.421706 
-1144.618909 -212.523266 220.116451 
314.379802 232.472677 -295.771489 
-1177.778838 -218.82308 227.466234 
323.218632 238.772491 -303.121271 
-1210.938768 -225.122894 234.816017 
332.057462 245.072305 -310.471054 
-1244.098697 -231.422708 242.1658 
340.896292 251.372119 -317.820837 
-1277.258626 -237.722522 249.515582 
349.735121 257.671932 -325.17062 
-1310.418556 -244.022336 256.865365 
358.573951 263.971746 -332.520403 
-1343.578485 -250.32215 264.215148 
367.412781 270.27156 -339.870186 
-1376.738414 -256.621963 271.564931 
376.251611 276.571374 -347.219968 
-1409.898344 -262.921777 278.914714 
385.09044 282.871188 -354.569751 
-1443.058273 -269.221591 286.264497 
393.92927 289.171002 -361.919534 
-1476.218203 -275.521405 293.61428 
402.7681 295.470816 -369.269317 
-1509.378132 -281.821219 300.964062 
411.60693 301.77063 -376.6191 
-1542.538061 -288.121033 308.313845 
420.445759 308.070443 -383.968883 
-1575.697991 -294.420847 315.663628 
429.284589 314.370258 -391.318666 
-1608.85792 -300.72066 323.013411 
438.123419 320.670072 -398.668449 
-1642.01785 -307.020474 330.363194 
446.962249 326.969886 -406.018232 
-1675.17778 -313.320288 337.712977 
455.801078 333.269701 -413.368015 
-1708.337711 -319.620102 345.06276 
464.639908 339.569516 -420.717799 
-1741.497643 -325.919916 352.412543 
473.478737 345.869333 -428.067583 
-1774.657578 -332.219729 359.762326 
482.317566 352.169153 -435.41737 
-1807.817517 -338.519543 367.112109 
491.156394 358.468978 -442.767158 
-1840.977464 -344.819356 374.461893 
499.995221 364.768812 -450.116952 
-1874.137426 -351.119168 381.811678 
508.834045 371.068663 -457.466755 
-1907.297417 -357.41898 389.161465 
517.672864 377.368545 -464.816576 
-1940.45746 -363.718789 396.511255 
526.511675 383.668486 -472.166429 
-1973.6176 -370.018594 403.861051 
535.350469 389.968536 -479.516342 
-2006.77792 -376.318392 411.210859 
544.189234 396.268787 -486.866365 
-2039.938573 -382.618176 418.560688 
553.027943 402.56941 -494.216595 
-2073.099843 -388.917936 425.910556 
561.86655 408.870724 -501.567206 
-2106.262258 -395.21765 433.260497 
570.704972 415.173327 -508.918526 
-2139.426796 -401.51728 440.610575 
579.543056 421.478353 -516.271168 
-2172.59528 -407.816749 447.960911 
588.38052 427.78799 -523.626288 
-2205.771123 -414.1159 455.31174 
597.216833 434.106536 -530.986076 
-2238.960766 -420.414396 462.663528 
606.050931 440.442591 -538.354718 
-2272.176474 -426.711456 470.017211 
614.88052 446.813534 -545.740237 
-2305.441845 -433.005242 477.374686 
623.700228 453.254244 -553.157922 
-2338.802599 -439.291402 484.739744 
632.496669 459.832255 -560.636233 
-2372.34721 -445.559988 492.119647 
641.235542 466.667161 -568.225177 
-2406.243875 -451.789908 499.526954 
649.829504 473.928765 -576.001618 
-2440.797066 -457.942622 506.978601 
658.063805 481.702741 -584.043964 
-2476.497993 -463.969484 514.48058 
665.440163 489.356991 -592.27221 
-2513.916003 -469.891201 521.967425 
670.880084 493.473207 -599.781927 
-2552.795498 -476.113707 529.173361 
672.090553 483.387789 -602.273014 
-2587.88264 -484.15561 535.90453 
662.856253 442.332391 -582.517957 
-2593.236716 -496.210392 546.807053 
622.628824 186.788647 -485.541016 
-2550.914803 -521.798926 559.648153 
5.842411 26.621487 -8.97962 
12.353417 90.517885 -27.93546 
-1.48495 5.864635 -11.373172 
-3.604039 23.787552 -15.628049 
-5.871916 1.894785 -12.835216 
-16.425025 1.382612 -9.856102 
-9.395294 2.313366 -14.214453 
-25.702324 -4.054338 -8.109717 
-12.616642 3.463381 -15.474412 
-33.257045 -4.845159 -7.680466 
-15.708544 4.512332 -16.57882 
-40.239704 -4.823537 -7.460774 
-18.734145 5.380848 -17.548598 
-47.130875 -4.914367 -7.131536 
-21.722321 6.130234 -18.423233 
-54.073971 -5.2211 -6.657045 
-24.68877 6.816735 -19.237799 
-61.085866 -5.67883 -6.074391 
-27.642676 7.473044 -20.016924 
-68.14953 -6.221493 -5.424241 
-30.589457 8.11542 -20.775993 
-75.24582 -6.807899 -4.735309 
-33.532258 8.751394 -21.523997 
-82.361014 -7.416047 -4.025021 
-36.472867 9.384371 -22.265987 
-89.486686 -8.034934 -3.303223 
-39.41228 10.015896 -23.004733 
-96.618035 -8.659179 -2.575279 
-42.351043 10.646692 -23.741736 
-103.752424 -9.286147 -1.844062 
-45.289457 11.277109 -24.477803 
-110.888436 -9.914526 -1.111099 
-48.227681 11.907325 -25.213367 
-118.025314 -10.543649 -0.377203 
-51.165804 12.537434 -25.94866 
-125.162657 -11.173167 0.357193 
-54.103872 13.167484 -26.683808 
-132.300247 -11.802899 1.091857 
-57.041911 13.797503 -27.418878 
-139.437972 -12.432746 1.826667 
-59.979933 14.427505 -28.153906 
-146.575768 -13.062654 2.561554 
-62.917948 15.057497 -28.888911 
-153.713602 -13.692596 3.296483 
-65.855957 15.687484 -29.623903 
-160.851458 -14.322556 4.031435 
-68.793964 16.317469 -30.358889 
-167.989325 -14.952526 4.766399 
-71.73197 16.947452 -31.093872 
-175.127198 -15.582501 5.501369 
-74.669975 17.577434 -31.828852 
-182.265074 -16.212479 6.236343 
-77.607979 18.207416 -32.563832 
-189.402952 -16.842459 6.971319 
-80.545984 18.837398 -33.298811 
-196.540831 -17.472439 7.706296 
-83.483988 19.467379 -34.033789 
-203.67871 -18.10242 8.441274 
-86.421992 20.097361 -34.768768 
-210.81659 -18.732401 9.176252 
-89.359996 20.727342 -35.503746 
-217.95447 -19.362383 9.91123 
-92.298 21.357324 -36.238725 
-225.09235 -19.992364 10.646208 
-95.236004 21.987305 -36.973703 
-232.23023 -20.622345 11.381187 
-98.174008 22.617286 -37.708681 
-239.36811 -21.252327 12.116165 
-101.112013 23.247268 -38.44366 
-246.50599 -21.882308 12.851143 
-104.050017 23.877249 -39.178638 
-253.64387 -22.512289 13.586121 
-106.988021 24.50723 -39.913616 
-260.78175 -23.142271 14.3211 
-109.926025 25.137212 -40.648594 
-267.91963 -23.772252 15.056078 
-112.864029 25.767193 -41.383573 
-275.05751 -24.402234 15.791056 
-115.802033 26.397175 -42.118551 
-282.19539 -25.032215 16.526034 
-118.740037 27.027156 -42.853529 
-289.33327 -25.662196 17.261013 
-121.678041 27.657137 -43.588508 
-296.47115 -26.292178 17.995991 
-124.616045 28.287119 -44.323486 
-303.60903 -26.922159 18.730969 
-127.55405 28.9171 -45.058464 
-310.74691 -27.55214 19.465948 
-130.492054 29.547082 -45.793442 
-317.88479 -28.182122 20.200926 
-133.430058 30.177063 -46.528421 
-325.02267 -28.812103 20.935904 
-136.368062 30.807044 -47.263399 
-332.16055 -29.442085 21.670882 
-139.306066 31.437026 -47.998377 
-339.29843 -30.072066 22.405861 
-142.24407 32.067007 -48.733355 
-346.43631 -30.702047 23.140839 
-145.182074 32.696989 -49.468334 
-353.57419 -31.332029 23.875818 
-148.120078 33.32697 -50.203312 
-360.712069 -31.96201 24.610796 
-151.058083 33.956952 -50.938289 
-367.849949 -32.591991 25.345775 
-153.996087 34.586933 -51.673267 
-374.987828 -33.221972 26.080753 
-156.934091 35.216915 -52.408243 
-382.125707 -33.851953 26.815733 
-159.872096 35.846897 -53.143219 
-389.263584 -34.481933 27.550713 
-162.810102 36.47688 -53.878191 
-396.401459 -35.111912 28.285695 
-165.748108 37.106865 -54.613159 
-403.53933 -35.741888 29.02068 
-168.686117 37.736852 -55.348118 
-410.677194 -36.371861 29.755671 
-171.624129 38.366844 -56.083061 
-417.815043 -37.001826 30.490673 
-174.562149 38.996844 -56.817972 
-424.952865 -37.631777 31.225696 
-177.500182 39.626861 -57.552827 
-432.090639 -38.261703 31.960755 
-180.43824 40.256908 -58.287577 
-439.228321 -38.891581 32.695884 
-183.376344 40.887008 -59.022131 
-446.365835 -39.521371 33.431142 
-186.314534 41.517207 -59.756321 
-453.503034 -40.150999 34.166638 
-189.252884 42.147591 -60.489836 
-460.639647 -40.780327 34.902578 
-192.191527 42.778329 -61.222091 
-467.775164 -41.409093 35.639348 
-195.1307 43.409784 -61.951996 
-474.908624 -42.0368 36.377679 
-198.070807 44.042791 -62.677502 
-482.038216 -42.662471 37.118986 
-201.01249 44.679378 -63.394771 
-489.160529 -43.284125 37.866029 
-203.956653 45.324581 -64.096632 
-496.269221 -43.897641 38.624273 
-206.904296 45.990738 -64.769872 
-503.35281 -44.494267 39.404537 
-209.855933 46.706626 -65.390792 
-510.391639 -45.055465 40.227846 
-212.810684 47.533355 -65.919068 
-517.355724 -45.543311 41.132929 
-215.767683 48.579151 -66.292829 
-524.210873 -45.886702 42.182683 
-218.743582 49.957109 -66.437216 
-530.95639 -45.977461 43.448617 
-221.859277 51.451959 -66.323277 
-537.755121 -45.746353 44.894381 
-225.668491 51.092158 -66.162734 
-545.282988 -45.575154 45.913137 
-232.188614 40.24994 -66.840145 
-555.403414 -47.828319 43.892602 
-246.941341 -8.346605 -69.710514 
-570.037403 -61.104697 31.480988 
-263.118146 -78.935444 -57.918545 
-538.29599 -95.753 20.695602 
-8.348425 21.511746 -9.606204 
-31.940451 128.059549 -31.940451 
-8.997537 5.809225 -5.05013 
-39.941553 12.033808 1.605102 
-15.820421 3.397961 -5.434454 
-41.526956 -3.949601 3.464726 
-23.365533 3.734967 -7.187596 
-45.649479 -5.550757 1.311931 
-30.432994 4.568343 -8.751571 
-52.922215 -5.132037 -0.08514 
-37.175821 5.389405 -9.958429 
-62.131915 -4.941333 -0.458129 
-43.817041 6.131746 -10.928296 
-72.309879 -5.150812 -0.219535 
-50.462174 6.818222 -11.773455 
-82.927295 -5.60133 0.31088 
-57.139807 7.4747 -12.559185 
-93.735389 -6.163742 0.96536 
-63.848041 8.116804 -13.317773 
-104.625532 -6.771018 1.669042 
-70.577741 8.752365 -14.064048 
-115.551776 -7.394316 2.39153 
-77.320705 9.384983 -14.804627 
-126.494632 -8.022702 3.121192 
-84.071329 10.016258 -15.542476 
-137.445554 -8.652472 3.853704 
-90.826212 10.646896 -16.278965 
-148.400589 -9.28252 4.587441 
-97.583413 11.277222 -17.014751 
-159.357794 -9.912578 5.32176 
-104.341862 11.907387 -17.750165 
-170.316168 -10.542605 6.056377 
-111.10098 12.537467 -18.485379 
-181.275177 -11.172608 6.791156 
-117.860456 13.167502 -19.220486 
-192.234533 -11.802599 7.526024 
-124.620124 13.797513 -19.955533 
-203.194077 -12.432584 8.260942 
-131.379895 14.42751 -20.690549 
-214.153723 -13.062567 8.995887 
-138.139721 15.0575 -21.425548 
-225.113425 -13.692549 9.730847 
-144.899578 15.687486 -22.160537 
-236.073157 -14.322531 10.465816 
-151.65945 16.31747 -22.895521 
-247.032905 -14.952513 11.200789 
-158.419331 16.947452 -23.630503 
-257.992662 -15.582494 11.935764 
-165.179217 17.577434 -24.365483 
-268.952424 -16.212475 12.670741 
-171.939105 18.207416 -25.100462 
-279.912188 -16.842457 13.405719 
-178.698995 18.837398 -25.835441 
-290.871953 -17.472438 14.140696 
-185.458885 19.467379 -26.570419 
-301.83172 -18.10242 14.875674 
-192.218776 20.097361 -27.305398 
-312.791486 -18.732401 15.610653 
-198.978667 20.727342 -28.040376 
-323.751253 -19.362382 16.345631 
-205.738558 21.357324 -28.775354 
-334.71102 -19.992364 17.080609 
-212.498449 21.987305 -29.510333 
-345.670787 -20.622345 17.815587 
-219.25834 22.617286 -30.245311 
-356.630554 -21.252327 18.550566 
-226.018231 23.247268 -30.980289 
-367.590321 -21.882308 19.285544 
-232.778122 23.877249 -31.715267 
-378.550088 -22.512289 20.020522 
-239.538014 24.50723 -32.450246 
-389.509855 -23.142271 20.7555 
-246.297905 25.137212 -33.185224 
-400.469622 -23.772252 21.490479 
-253.057796 25.767193 -33.920202 
-411.42939 -24.402234 22.225457 
-259.817687 26.397175 -34.655181 
-422.389157 -25.032215 22.960435 
-266.577578 27.027156 -35.390159 
-433.348924 -25.662196 23.695414 
-273.33747 27.657137 -36.125137 
-444.308691 -26.292178 24.430392 
-280.097361 28.287119 -36.860115 
-455.268458 -26.922159 25.16537 
-286.857252 28.9171 -37.595094 
-466.228225 -27.552141 25.900348 
-293.617143 29.547082 -38.330072 
-477.187992 -28.182122 26.635327 
-300.377034 30.177063 -39.06505 
-488.147759 -28.812103 27.370305 
-307.136925 30.807044 -39.800029 
-499.107526 -29.442085 28.105283 
-313.896817 31.437026 -40.535007 
-510.067293 -30.072066 28.840262 
-320.656708 32.067007 -41.269985 
-521.02706 -30.702047 29.57524 
-327.416599 32.696988 -42.004963 
-531.986827 -31.332029 30.310218 
-334.17649 33.32697 -42.739942 
-542.946594 -31.96201 31.045196 
-340.936381 33.956951 -43.47492 
-553.906361 -32.591992 31.780175 
-347.696272 34.586933 -44.209898 
-564.866128 -33.221973 32.515153 
-354.456162 35.216914 -44.944876 
-575.825894 -33.851954 33.250132 
-361.216052 35.846895 -45.679853 
-586.785659 -34.481935 33.98511 
-367.975941 36.476876 -46.414831 
-597.745423 -35.111916 34.72009 
-374.735829 37.106857 -47.149806 
-608.705185 -35.741897 35.455069 
-381.495713 37.736838 -47.884781 
-619.664941 -36.371876 36.19005 
-388.25559 38.366818 -48.619751 
-630.624688 -37.001855 36.925033 
-395.015456 38.996797 -49.354714 
-641.584418 -37.63183 37.660021 
-401.7753 39.626773 -50.089666 
-652.544116 -38.261801 38.395016 
-408.535104 40.256746 -50.824594 
-663.503755 -38.891763 39.130026 
-415.294834 40.88671 -51.559479 
-674.463286 -39.521709 39.865063 
-422.054425 41.516661 -52.294287 
-685.422616 -40.151624 40.600149 
-428.813758 42.146587 -53.028951 
-696.381576 -40.781484 41.335326 
-435.572608 42.77647 -53.763356 
-707.339855 -41.411242 42.070672 
-442.330552 43.406279 -54.497285 
-718.296882 -42.040812 42.806329 
-449.086794 44.035967 -55.230333 
-729.251592 -42.670033 43.542574 
-455.839836 44.665463 -55.961708 
-740.201969 -43.298585 44.279956 
-462.586901 45.294635 -56.689742 
-751.144064 -43.925806 45.019613 
-469.322981 45.92316 -57.410653 
-762.06979 -44.550232 45.764016 
-476.039546 46.549949 -58.115297 
-772.961732 -45.168465 46.518711 
-482.723679 47.171069 -58.780855 
-783.780796 -45.772427 47.296233 
-489.360857 47.772911 -59.350646 
-794.437396 -46.343046 48.124256 
-495.951335 48.311757 -59.68938 
-804.728154 -46.837278 49.059888 
-502.565712 48.658131 -59.498797 
-814.212472 -47.166584 50.205062 
-509.493386 48.45943 -58.21111 
-822.028901 -47.180826 51.682367 
-517.560607 46.832781 -55.066753 
-826.843954 -46.74574 53.396058 
-528.581546 41.577907 -50.324305 
-827.972721 -46.290853 53.937985 
-544.952628 22.511221 -50.799684 
-832.326807 -49.545671 45.97022 
-559.967132 -167.99014 -83.201544 
-898.068628 -83.423579 -14.942138 
