# vtk DataFile Version 3.1
for FEM Programme igpoints output
ASCII
DATASET POLYDATA
POINTS 40 double
 316.666667 33.333333 0.0
 333.333333 16.666667 0.0
 266.666667 33.333333 0.0
 283.333333 16.666667 0.0
 216.666667 33.333333 0.0
 233.333333 16.666667 0.0
 166.666667 33.333333 0.0
 183.333333 16.666667 0.0
 116.666667 33.333333 0.0
 133.333333 16.666667 0.0
 66.666667 33.333333 0.0
 83.333333 16.666667 0.0
 16.666667 33.333333 0.0
 33.333333 16.666667 0.0
 -33.333333 33.333333 0.0
 -16.666667 16.666667 0.0
 -83.333333 33.333333 0.0
 -66.666667 16.666667 0.0
 -133.333333 33.333333 0.0
 -116.666667 16.666667 0.0
 -183.333333 33.333333 0.0
 -166.666667 16.666667 0.0
 -233.333333 33.333333 0.0
 -216.666667 16.666667 0.0
 -283.333333 33.333333 0.0
 -266.666667 16.666667 0.0
 -333.333333 33.333333 0.0
 -316.666667 16.666667 0.0
 -383.333333 33.333333 0.0
 -366.666667 16.666667 0.0
 -433.333333 33.333333 0.0
 -416.666667 16.666667 0.0
 -483.333333 33.333333 0.0
 -466.666667 16.666667 0.0
 -533.333333 33.333333 0.0
 -516.666667 16.666667 0.0
 -583.333333 33.333333 0.0
 -566.666667 16.666667 0.0
 -633.333333 33.333333 0.0
 -616.666667 16.666667 0.0
POINT_DATA 40
VECTORS displacement double
0.008722  -0.688105  0.0
-0.009256  -0.706192  0.0
0.008712  -0.63415  0.0
-0.009164  -0.652124  0.0
0.008659  -0.580637  0.0
-0.009037  -0.598431  0.0
0.008561  -0.527844  0.0
-0.008865  -0.545368  0.0
0.008418  -0.476039  0.0
-0.008648  -0.493203  0.0
0.00823  -0.425492  0.0
-0.008387  -0.442207  0.0
0.007998  -0.376473  0.0
-0.00808  -0.392649  0.0
0.00772  -0.329252  0.0
-0.007729  -0.344799  0.0
0.007397  -0.284098  0.0
-0.007332  -0.298926  0.0
0.00703  -0.241281  0.0
-0.006891  -0.2553  0.0
0.006617  -0.20107  0.0
-0.006405  -0.21419  0.0
0.00616  -0.163735  0.0
-0.005873  -0.175867  0.0
0.005658  -0.129546  0.0
-0.005297  -0.140599  0.0
0.00511  -0.098772  0.0
-0.004676  -0.108657  0.0
0.004518  -0.071683  0.0
-0.00401  -0.08031  0.0
0.003881  -0.048549  0.0
-0.003299  -0.055827  0.0
0.003199  -0.029639  0.0
-0.002543  -0.035479  0.0
0.002472  -0.015223  0.0
-0.001742  -0.019535  0.0
0.0017  -0.00557  0.0
-0.000896  -0.008264  0.0
0.000878  -0.000959  0.0
-5e-06  -0.001933  0.0
FIELD FieldData 2
Strain 3 40 double
1e-06 1e-06 -6e-06 
-2e-06 3e-06 -4e-06 
4e-06 1e-06 -9e-06 
-4e-06 1e-06 -1e-06 
6e-06 1e-06 -1.2e-05 
-7e-06 1e-06 2e-06 
9e-06 1e-06 -1.5e-05 
-1e-05 1e-06 4e-06 
1.2e-05 1e-06 -1.7e-05 
-1.2e-05 1e-06 7e-06 
1.5e-05 1e-06 -2e-05 
-1.5e-05 1e-06 1e-05 
1.7e-05 1e-06 -2.3e-05 
-1.8e-05 1e-06 1.2e-05 
2e-05 1e-06 -2.5e-05 
-2.1e-05 1e-06 1.5e-05 
2.3e-05 1e-06 -2.8e-05 
-2.3e-05 1e-06 1.8e-05 
2.5e-05 1e-06 -3.1e-05 
-2.6e-05 1e-06 2e-05 
2.8e-05 1e-06 -3.4e-05 
-2.9e-05 1e-06 2.3e-05 
3.1e-05 1e-06 -3.6e-05 
-3.1e-05 1e-06 2.6e-05 
3.3e-05 1e-06 -3.9e-05 
-3.4e-05 1e-06 2.9e-05 
3.6e-05 1e-06 -4.2e-05 
-3.7e-05 1e-06 3.1e-05 
3.9e-05 1e-06 -4.4e-05 
-3.9e-05 1e-06 3.4e-05 
4.2e-05 1e-06 -4.7e-05 
-4.2e-05 1e-06 3.7e-05 
4.4e-05 1e-06 -5e-05 
-4.5e-05 1e-06 3.9e-05 
4.7e-05 1e-06 -5.2e-05 
-4.7e-05 1e-06 4.2e-05 
5e-05 1e-06 -5.5e-05 
-5e-05 1e-06 4.5e-05 
5.3e-05 0.0 -5.8e-05 
-5.3e-05 1e-06 4.7e-05 
Stress 3 40 double
16.621966 15.228066 -23.378034 
-16.621966 23.378034 -16.621966 
44.503462 23.00065 -35.496538 
-44.503462 -3.109562 -4.503462 
74.076001 31.853083 -45.923999 
-74.076001 -12.573189 5.923999 
103.703767 40.740781 -56.296233 
-103.703767 -21.480848 16.296233 
133.333335 49.629631 -66.666665 
-133.333335 -30.37035 26.666665 
162.962963 58.518519 -77.037037 
-162.962963 -39.259259 37.037037 
192.592593 67.407407 -87.407407 
-192.592593 -48.148148 47.407407 
222.222222 76.296296 -97.777778 
-222.222222 -57.037037 57.777778 
251.851852 85.185185 -108.148148 
-251.851852 -65.925926 68.148148 
281.481481 94.074074 -118.518519 
-281.481481 -74.814815 78.518519 
311.111111 102.962963 -128.888889 
-311.111111 -83.703704 88.888889 
340.740741 111.851852 -139.259259 
-340.740741 -92.592593 99.259259 
370.37037 120.740741 -149.62963 
-370.37037 -101.481481 109.62963 
400.0 129.62963 -160.0 
-400.0 -110.37037 120.0 
429.62963 138.518518 -170.37037 
-429.62963 -119.259259 130.37037 
459.25926 147.407397 -180.74074 
-459.25926 -128.148149 140.74074 
488.888921 156.295971 -191.111079 
-488.888921 -137.037058 151.111079 
518.519509 165.175212 -201.480491 
-518.519509 -145.926559 161.480491 
548.178483 173.76869 -211.821517 
-548.178483 -154.834186 171.821517 
578.706638 173.611992 -221.293362 
-578.706638 -164.296846 181.293362 
