# vtk DataFile Version 3.1
for FEM Programme igpoints output
ASCII
DATASET POLYDATA
POINTS 40 double
 316.666667 33.333333 0.0
 333.333333 16.666667 0.0
 266.666667 33.333333 0.0
 283.333333 16.666667 0.0
 216.666667 33.333333 0.0
 233.333333 16.666667 0.0
 166.666667 33.333333 0.0
 183.333333 16.666667 0.0
 116.666667 33.333333 0.0
 133.333333 16.666667 0.0
 66.666667 33.333333 0.0
 83.333333 16.666667 0.0
 16.666667 33.333333 0.0
 33.333333 16.666667 0.0
 -33.333333 33.333333 0.0
 -16.666667 16.666667 0.0
 -83.333333 33.333333 0.0
 -66.666667 16.666667 0.0
 -133.333333 33.333333 0.0
 -116.666667 16.666667 0.0
 -183.333333 33.333333 0.0
 -166.666667 16.666667 0.0
 -233.333333 33.333333 0.0
 -216.666667 16.666667 0.0
 -283.333333 33.333333 0.0
 -266.666667 16.666667 0.0
 -333.333333 33.333333 0.0
 -316.666667 16.666667 0.0
 -383.333333 33.333333 0.0
 -366.666667 16.666667 0.0
 -433.333333 33.333333 0.0
 -416.666667 16.666667 0.0
 -483.333333 33.333333 0.0
 -466.666667 16.666667 0.0
 -533.333333 33.333333 0.0
 -516.666667 16.666667 0.0
 -583.333333 33.333333 0.0
 -566.666667 16.666667 0.0
 -633.333333 33.333333 0.0
 -616.666667 16.666667 0.0
POINT_DATA 40
VECTORS displacement double
0.0  0.0  0.0
0.0  0.0  0.0
0.0  0.0  0.0
0.0  0.0  0.0
0.0  0.0  0.0
0.0  0.0  0.0
0.0  0.0  0.0
0.0  0.0  0.0
0.0  0.0  0.0
0.0  0.0  0.0
0.0  0.0  0.0
0.0  0.0  0.0
0.0  0.0  0.0
0.0  0.0  0.0
0.0  0.0  0.0
0.0  0.0  0.0
0.0  0.0  0.0
0.0  0.0  0.0
0.0  0.0  0.0
0.0  0.0  0.0
0.0  0.0  0.0
0.0  0.0  0.0
0.0  0.0  0.0
0.0  0.0  0.0
0.0  0.0  0.0
0.0  0.0  0.0
0.0  0.0  0.0
0.0  0.0  0.0
0.0  0.0  0.0
0.0  0.0  0.0
0.0  0.0  0.0
0.0  0.0  0.0
0.0  0.0  0.0
0.0  0.0  0.0
0.0  0.0  0.0
0.0  0.0  0.0
0.0  0.0  0.0
0.0  0.0  0.0
0.0  0.0  0.0
0.0  0.0  0.0
FIELD FieldData 2
Strain 3 40 double
0.0 0.0 0.0 
0.0 0.0 0.0 
0.0 0.0 0.0 
0.0 0.0 0.0 
0.0 0.0 0.0 
0.0 0.0 0.0 
0.0 0.0 0.0 
0.0 0.0 0.0 
0.0 0.0 0.0 
0.0 0.0 0.0 
0.0 0.0 0.0 
0.0 0.0 0.0 
0.0 0.0 0.0 
0.0 0.0 0.0 
0.0 0.0 0.0 
0.0 0.0 0.0 
0.0 0.0 0.0 
0.0 0.0 0.0 
0.0 0.0 0.0 
0.0 0.0 0.0 
0.0 0.0 0.0 
0.0 0.0 0.0 
0.0 0.0 0.0 
0.0 0.0 0.0 
0.0 0.0 0.0 
0.0 0.0 0.0 
0.0 0.0 0.0 
0.0 0.0 0.0 
0.0 0.0 0.0 
0.0 0.0 0.0 
0.0 0.0 0.0 
0.0 0.0 0.0 
0.0 0.0 0.0 
0.0 0.0 0.0 
0.0 0.0 0.0 
0.0 0.0 0.0 
0.0 0.0 0.0 
0.0 0.0 0.0 
0.0 0.0 0.0 
0.0 0.0 0.0 
Stress 3 40 double
0.0 0.0 0.0 
0.0 0.0 0.0 
0.0 0.0 0.0 
0.0 0.0 0.0 
0.0 0.0 0.0 
0.0 0.0 0.0 
0.0 0.0 0.0 
0.0 0.0 0.0 
0.0 0.0 0.0 
0.0 0.0 0.0 
0.0 0.0 0.0 
0.0 0.0 0.0 
0.0 0.0 0.0 
0.0 0.0 0.0 
0.0 0.0 0.0 
0.0 0.0 0.0 
0.0 0.0 0.0 
0.0 0.0 0.0 
0.0 0.0 0.0 
0.0 0.0 0.0 
0.0 0.0 0.0 
0.0 0.0 0.0 
0.0 0.0 0.0 
0.0 0.0 0.0 
0.0 0.0 0.0 
0.0 0.0 0.0 
0.0 0.0 0.0 
0.0 0.0 0.0 
0.0 0.0 0.0 
0.0 0.0 0.0 
0.0 0.0 0.0 
0.0 0.0 0.0 
0.0 0.0 0.0 
0.0 0.0 0.0 
0.0 0.0 0.0 
0.0 0.0 0.0 
0.0 0.0 0.0 
0.0 0.0 0.0 
0.0 0.0 0.0 
0.0 0.0 0.0 
