# vtk DataFile Version 3.1
for FEM Programme igpoints output
ASCII
DATASET POLYDATA
POINTS 40 double
 316.666667 33.333333 0.0
 333.333333 16.666667 0.0
 266.666667 33.333333 0.0
 283.333333 16.666667 0.0
 216.666667 33.333333 0.0
 233.333333 16.666667 0.0
 166.666667 33.333333 0.0
 183.333333 16.666667 0.0
 116.666667 33.333333 0.0
 133.333333 16.666667 0.0
 66.666667 33.333333 0.0
 83.333333 16.666667 0.0
 16.666667 33.333333 0.0
 33.333333 16.666667 0.0
 -33.333333 33.333333 0.0
 -16.666667 16.666667 0.0
 -83.333333 33.333333 0.0
 -66.666667 16.666667 0.0
 -133.333333 33.333333 0.0
 -116.666667 16.666667 0.0
 -183.333333 33.333333 0.0
 -166.666667 16.666667 0.0
 -233.333333 33.333333 0.0
 -216.666667 16.666667 0.0
 -283.333333 33.333333 0.0
 -266.666667 16.666667 0.0
 -333.333333 33.333333 0.0
 -316.666667 16.666667 0.0
 -383.333333 33.333333 0.0
 -366.666667 16.666667 0.0
 -433.333333 33.333333 0.0
 -416.666667 16.666667 0.0
 -483.333333 33.333333 0.0
 -466.666667 16.666667 0.0
 -533.333333 33.333333 0.0
 -516.666667 16.666667 0.0
 -583.333333 33.333333 0.0
 -566.666667 16.666667 0.0
 -633.333333 33.333333 0.0
 -616.666667 16.666667 0.0
POINT_DATA 40
VECTORS displacement double
0.035672  -3.494966  0.0
-0.039411  -3.570051  0.0
0.035672  -3.269697  0.0
-0.039408  -3.344788  0.0
0.035669  -3.044417  0.0
-0.039391  -3.119513  0.0
0.035657  -2.819184  0.0
-0.039347  -2.894259  0.0
0.035624  -2.594144  0.0
-0.039254  -2.669139  0.0
0.035552  -2.369567  0.0
-0.039083  -2.444381  0.0
0.035418  -2.145883  0.0
-0.038804  -2.220356  0.0
0.035193  -1.923711  0.0
-0.038377  -1.997614  0.0
0.034842  -1.703892  0.0
-0.037758  -1.776922  0.0
0.034324  -1.487531  0.0
-0.036898  -1.559292  0.0
0.033594  -1.276021  0.0
-0.035742  -1.346017  0.0
0.032599  -1.071082  0.0
-0.034228  -1.138704  0.0
0.031284  -0.874794  0.0
-0.032291  -0.939309  0.0
0.029585  -0.689629  0.0
-0.029859  -0.75017  0.0
0.027434  -0.518488  0.0
-0.026854  -0.574041  0.0
0.024756  -0.364729  0.0
-0.023192  -0.414125  0.0
0.021472  -0.232208  0.0
-0.018785  -0.274107  0.0
0.017497  -0.125308  0.0
-0.013538  -0.158192  0.0
0.012736  -0.048979  0.0
-0.00735  -0.071128  0.0
0.006984  -0.008935  0.0
-9.3e-05  -0.018181  0.0
FIELD FieldData 2
Strain 3 40 double
0.0 -0.0 -0.0 
-0.0 -0.0 -0.0 
0.0 0.0 -1e-06 
-0.0 -0.0 -0.0 
1e-06 0.0 -3e-06 
-1e-06 0.0 -1e-06 
2e-06 0.0 -7e-06 
-3e-06 0.0 -1e-06 
5e-06 1e-06 -1.2e-05 
-5e-06 0.0 -1e-06 
9e-06 1e-06 -2e-05 
-1e-05 1e-06 -0.0 
1.5e-05 2e-06 -3e-05 
-1.6e-05 1e-06 2e-06 
2.3e-05 3e-06 -4.3e-05 
-2.5e-05 2e-06 6e-06 
3.4e-05 4e-06 -5.9e-05 
-3.6e-05 3e-06 1.2e-05 
4.7e-05 5e-06 -7.8e-05 
-5e-05 4e-06 1.9e-05 
6.4e-05 6e-06 -0.000102 
-6.7e-05 5e-06 3e-05 
8.4e-05 7e-06 -0.000129 
-8.8e-05 6e-06 4.3e-05 
0.000108 9e-06 -0.000161 
-0.000112 7e-06 6e-05 
0.000136 1e-05 -0.000198 
-0.000141 9e-06 8e-05 
0.000168 1.2e-05 -0.000241 
-0.000175 1e-05 0.000104 
0.000206 1.3e-05 -0.000288 
-0.000213 1.2e-05 0.000132 
0.000248 1.5e-05 -0.000342 
-0.000257 1.3e-05 0.000165 
0.000296 1.7e-05 -0.000402 
-0.000306 1.5e-05 0.000203 
0.000351 1.9e-05 -0.000468 
-0.000361 1.7e-05 0.000246 
0.000419 0.0 -0.000536 
-0.000425 1.9e-05 0.000289 
Stress 3 40 double
0.327739 -0.322615 -0.505594 
-0.327739 -0.327739 -0.327739 
2.720893 0.965799 -3.945773 
-2.720893 -1.237205 -1.88756 
10.626996 5.097376 -11.873004 
-10.626996 -3.038568 -3.960329 
27.790966 13.209546 -25.542367 
-27.790966 -6.428013 -5.290966 
57.917854 26.414279 -46.248813 
-57.917854 -12.5031 -4.58452 
104.711407 45.822716 -75.288593 
-104.711407 -22.374499 -0.54474 
171.87533 72.545967 -113.958004 
-171.87533 -37.153305 8.12467 
263.113327 107.695144 -163.55334 
-263.113327 -57.95063 22.720006 
382.129102 152.381357 -225.370898 
-382.129102 -85.877585 44.537565 
532.626359 207.71572 -300.706975 
-532.626359 -122.045281 74.873641 
718.3088 274.809341 -390.857866 
-718.3088 -167.564828 115.024533 
942.880131 354.773333 -497.119869 
-942.880131 -223.547338 166.286536 
1210.044054 448.718806 -620.789279 
-1210.044054 -291.103923 229.955946 
1523.504274 557.756872 -763.162393 
-1523.504274 -371.345692 307.32906 
1886.964494 682.998634 -925.535506 
-1886.964494 -465.383759 399.702173 
2304.12844 825.554987 -1109.204893 
-2304.12844 -574.329246 508.37156 
2778.700472 986.530431 -1315.466194 
-2778.700472 -699.293686 634.632861 
3314.404408 1166.833594 -1545.595592 
-3314.404408 -841.401033 779.762258 
3915.559823 1361.375516 -1800.27351 
-3915.559823 -1002.155676 944.440177 
4604.728675 1381.418602 -2061.937992 
-4604.728675 -1194.711034 1111.104658 
