# vtk DataFile Version 3.1
for FEM Programme igpoints output
ASCII
DATASET POLYDATA
POINTS 7788 double
 49.508367 47.005039 0.0
 49.648041 45.109344 0.0
 45.191734 49.493278 0.0
 45.754337 47.492414 0.0
 44.146419 47.394757 0.0
 44.893979 47.89325 0.0
 46.717554 46.013907 0.0
 47.554988 44.517798 0.0
 45.891849 44.527317 0.0
 46.732086 45.016992 0.0
 43.320831 46.009782 0.0
 44.178276 44.52747 0.0
 42.451938 44.529608 0.0
 43.315204 45.02523 0.0
 45.035371 45.024222 0.0
 44.164831 46.49391 0.0
 45.858244 46.506121 0.0
 45.016297 46.006111 0.0
 48.288416 44.950842 0.0
 47.596946 46.511961 0.0
 49.156408 46.114383 0.0
 48.344907 45.94809 0.0
 46.534993 48.011283 0.0
 46.301579 49.004734 0.0
 44.56479 48.900663 0.0
 47.109845 49.511457 0.0
 49.608622 48.89954 0.0
 49.116988 47.904579 0.0
 48.941955 49.566207 0.0
 48.051801 49.077664 0.0
 47.518292 47.523044 0.0
 48.226834 48.082703 0.0
 38.987496 47.525442 0.0
 37.195379 47.524755 0.0
 38.079093 48.021829 0.0
 39.85943 46.030747 0.0
 40.720175 44.532253 0.0
 38.984989 44.53272 0.0
 39.8537 45.032071 0.0
 36.363861 46.0302 0.0
 37.248503 44.532636 0.0
 35.513973 44.532098 0.0
 36.378163 45.031896 0.0
 38.115782 45.032462 0.0
 37.228844 46.529434 0.0
 38.985362 46.52989 0.0
 38.110425 46.030956 0.0
 31.537897 48.901789 0.0
 32.054802 47.397598 0.0
 30.434586 47.493861 0.0
 31.279808 47.895318 0.0
 32.907013 46.01041 0.0
 33.782561 44.529777 0.0
 32.054495 44.528049 0.0
 32.91709 45.02584 0.0
 29.482674 46.02648 0.0
 30.326841 44.529809 0.0
 28.593945 44.532112 0.0
 29.46406 45.029398 0.0
 31.192608 45.026084 0.0
 30.35777 46.509607 0.0
 32.056734 46.495335 0.0
 31.204924 46.008801 0.0
 34.64505 45.029793 0.0
 33.75092 46.509034 0.0
 35.478108 46.52509 0.0
 34.623487 46.024481 0.0
 32.817375 47.893745 0.0
 32.520963 48.898878 0.0
 30.854751 49.492587 0.0
 33.171151 49.489676 0.0
 36.260472 48.018383 0.0
 36.146992 49.009171 0.0
 35.099053 49.503176 0.0
 37.047939 49.505995 0.0
 38.045133 49.012281 0.0
 34.270204 48.992851 0.0
 35.408184 47.517952 0.0
 33.663213 47.490107 0.0
 34.465855 47.998416 0.0
 41.588087 45.02978 0.0
 40.739613 46.526481 0.0
 42.471274 46.509712 0.0
 41.601795 46.025333 0.0
 39.898796 48.020639 0.0
 39.942455 49.011032 0.0
 38.997194 49.506286 0.0
 43.362237 47.892993 0.0
 43.58473 48.898209 0.0
 40.945261 49.504746 0.0
 42.87834 49.490824 0.0
 41.823602 48.99557 0.0
 42.531091 47.492076 0.0
 40.776846 47.520821 0.0
 41.698845 48.002037 0.0
 25.094848 47.525489 0.0
 23.306096 47.520927 0.0
 24.172891 48.020392 0.0
 25.990564 46.031542 0.0
 26.857968 44.532889 0.0
 25.121909 44.532793 0.0
 25.98999 45.032606 0.0
 22.499093 46.025829 0.0
 23.385912 44.531975 0.0
 21.653495 44.529938 0.0
 22.51629 45.029612 0.0
 24.251775 45.032074 0.0
 23.357345 46.52637 0.0
 25.111114 46.529907 0.0
 24.240405 46.030252 0.0
 17.720815 48.992887 0.0
 18.324225 47.486853 0.0
 16.576778 47.516951 0.0
 17.521466 47.997417 0.0
 19.075953 46.007362 0.0
 19.925866 44.527664 0.0
 18.198225 44.528651 0.0
 19.064258 45.024733 0.0
 15.617736 46.029446 0.0
 16.466833 44.531372 0.0
 14.731545 44.532532 0.0
 15.603001 45.031203 0.0
 17.336685 45.028209 0.0
 16.506303 46.523317 0.0
 18.234655 46.504983 0.0
 17.36142 46.021912 0.0
 20.788133 45.026182 0.0
 19.927752 46.492821 0.0
 21.626488 46.508683 0.0
 20.778323 46.008711 0.0
 19.173271 47.887338 0.0
 18.824984 49.48954 0.0
 16.895831 49.503347 0.0
 19.47468 48.894554 0.0
 22.373791 48.002055 0.0
 22.21701 48.995174 0.0
 21.141775 49.490343 0.0
 23.075235 49.504831 0.0
 24.098811 49.011177 0.0
 20.458137 48.895358 0.0
 21.552434 47.490353 0.0
 19.935499 47.390927 0.0
 20.712016 47.888486 0.0
 10.152866 49.010159 0.0
 11.202064 47.524889 0.0
 9.416898 47.519007 0.0
 10.26722 48.019041 0.0
 12.120726 46.031406 0.0
 12.994868 44.532883 0.0
 11.258739 44.532678 0.0
 12.125548 45.032531 0.0
 8.633046 46.02485 0.0
 9.523293 44.53172 0.0
 7.791922 44.529956 0.0
 8.653469 45.029372 0.0
 10.38778 45.031772 0.0
 9.485605 46.525074 0.0
 11.236653 46.529429 0.0
 10.370516 46.029648 0.0
 3.779837 48.998082 0.0
 4.44282 47.49515 0.0
 2.687679 47.521036 0.0
 3.622488 48.004495 0.0
 5.213374 46.011477 0.0
 6.064859 44.528504 0.0
 4.336633 44.529824 0.0
 5.202757 45.026345 0.0
 1.749184 46.030828 0.0
 2.604302 44.532114 0.0
 0.868629 44.5328 0.0
 1.739166 45.031958 0.0
 3.474005 45.029689 0.0
 2.634767 46.526423 0.0
 4.367696 46.510395 0.0
 3.494453 46.025128 0.0
 6.926823 45.026814 0.0
 6.064218 46.496847 0.0
 7.760241 46.508645 0.0
 6.915566 46.010025 0.0
 5.286486 47.896485 0.0
 5.542707 48.901004 0.0
 2.923448 49.504826 0.0
 4.85639 49.493256 0.0
 8.474648 47.999501 0.0
 8.274978 48.993385 0.0
 7.172104 49.489376 0.0
 9.102874 49.504009 0.0
 6.525087 48.897124 0.0
 7.670551 47.489363 0.0
 6.062207 47.3971 0.0
 6.823865 47.890995 0.0
 13.864411 45.032559 0.0
 12.996001 46.53039 0.0
 14.752235 46.529406 0.0
 13.870366 46.031191 0.0
 12.086276 48.022266 0.0
 11.049992 49.506149 0.0
 12.048557 49.012408 0.0
 15.725804 48.018148 0.0
 15.845507 49.009074 0.0
 12.998565 49.506259 0.0
 14.949676 49.505726 0.0
 13.948241 49.011985 0.0
 14.789827 47.524474 0.0
 12.996139 47.525789 0.0
 13.908096 48.021659 0.0
 27.728166 45.032298 0.0
 26.870271 46.530291 0.0
 28.624287 46.52766 0.0
 27.739894 46.030764 0.0
 25.993594 48.022524 0.0
 25.023576 49.506346 0.0
 29.615251 48.004761 0.0
 25.996402 49.012596 0.0
 29.777328 48.997015 0.0
 26.972826 49.50625 0.0
 28.922577 49.504428 0.0
 27.895403 49.010678 0.0
 28.680048 47.521687 0.0
 26.889566 47.525691 0.0
 27.814951 48.020191 0.0
 -3.778412 48.996721 0.0
 -2.686158 47.520431 0.0
 -4.440541 47.491652 0.0
 -3.620584 48.002627 0.0
 -1.748512 46.030755 0.0
 -0.868152 44.532836 0.0
 -2.603916 44.53212 0.0
 -1.738426 45.032054 0.0
 -5.21184 46.008977 0.0
 -4.336428 44.529383 0.0
 -6.064721 44.527602 0.0
 -5.202594 45.025282 0.0
 -3.473578 45.029432 0.0
 -4.365691 46.508067 0.0
 -2.634019 46.525811 0.0
 -3.493595 46.024421 0.0
 -10.152011 49.009549 0.0
 -9.416173 47.517649 0.0
 -11.200991 47.524572 0.0
 -10.266186 48.018271 0.0
 -8.632308 46.023338 0.0
 -7.79187 44.529222 0.0
 -9.523129 44.531413 0.0
 -8.653367 45.028523 0.0
 -12.120051 46.031325 0.0
 -11.258309 44.532582 0.0
 -12.994403 44.532867 0.0
 -12.124724 45.032427 0.0
 -10.387284 45.031473 0.0
 -11.236192 46.529196 0.0
 -9.484626 46.523944 0.0
 -10.36984 46.02919 0.0
 -6.926785 45.025494 0.0
 -7.758294 46.505506 0.0
 -6.06145 46.492766 0.0
 -6.914268 46.006964 0.0
 -8.472961 47.998199 0.0
 -8.273947 48.99284 0.0
 -11.049027 49.505981 0.0
 -9.102984 49.503568 0.0
 -5.280298 47.890109 0.0
 -5.537926 48.89619 0.0
 -6.519559 48.893635 0.0
 -4.855997 49.491828 0.0
 -7.170963 49.489272 0.0
 -6.055057 47.390312 0.0
 -7.6674 47.486662 0.0
 -6.816982 47.885666 0.0
 -17.72094 48.993154 0.0
 -16.576037 47.51729 0.0
 -18.325454 47.48694 0.0
 -17.521639 47.997729 0.0
 -15.617442 46.029739 0.0
 -14.731108 44.532647 0.0
 -16.466634 44.531591 0.0
 -15.602419 45.031515 0.0
 -19.07684 46.007413 0.0
 -18.198608 44.528758 0.0
 -19.926511 44.527536 0.0
 -19.065201 45.024725 0.0
 -17.33684 45.028516 0.0
 -18.235035 46.505204 0.0
 -16.506445 46.523572 0.0
 -17.361628 46.022274 0.0
 -24.098337 49.010953 0.0
 -23.306263 47.520613 0.0
 -25.094095 47.525352 0.0
 -24.172365 48.020132 0.0
 -22.499388 46.025392 0.0
 -21.653911 44.529743 0.0
 -23.38589 44.531864 0.0
 -22.516636 45.029326 0.0
 -25.989942 46.031531 0.0
 -25.121554 44.532744 0.0
 -26.857576 44.532902 0.0
 -25.989293 45.03257 0.0
 -24.251415 45.031937 0.0
 -25.110765 46.52984 0.0
 -23.357205 46.526064 0.0
 -24.239977 46.030071 0.0
 -20.789068 45.02589 0.0
 -21.627098 46.508194 0.0
 -19.928584 46.492609 0.0
 -20.779503 46.008275 0.0
 -22.373654 48.002902 0.0
 -22.216889 48.996199 0.0
 -25.022867 49.506222 0.0
 -23.07547 49.504731 0.0
 -19.173523 47.886694 0.0
 -19.474898 48.893853 0.0
 -21.141419 49.491468 0.0
 -18.82613 49.489525 0.0
 -20.456853 48.895796 0.0
 -19.934848 47.390153 0.0
 -21.552306 47.491155 0.0
 -20.710975 47.88878 0.0
 -13.863637 45.032636 0.0
 -14.751964 46.529523 0.0
 -12.995563 46.530416 0.0
 -13.86947 46.031288 0.0
 -15.724949 48.018594 0.0
 -15.844421 49.009509 0.0
 -16.89481 49.50363 0.0
 -14.949611 49.505879 0.0
 -13.948797 49.012012 0.0
 -12.086002 48.021984 0.0
 -12.048214 49.012114 0.0
 -12.999187 49.506133 0.0
 -12.996716 47.525698 0.0
 -14.78988 47.52466 0.0
 -13.908538 48.021708 0.0
 -31.538907 48.902313 0.0
 -30.4347 47.494755 0.0
 -32.055704 47.397237 0.0
 -31.280905 47.895906 0.0
 -29.482545 46.02665 0.0
 -28.593691 44.53231 0.0
 -30.327003 44.530072 0.0
 -29.464004 45.029828 0.0
 -32.907484 46.01025 0.0
 -32.054926 44.527994 0.0
 -33.782762 44.52952 0.0
 -32.917703 45.025554 0.0
 -31.193181 45.026285 0.0
 -32.057135 46.495477 0.0
 -30.357972 46.509681 0.0
 -31.205609 46.009071 0.0
 -38.044443 49.01247 0.0
 -37.194804 47.525027 0.0
 -38.987192 47.525794 0.0
 -38.078319 48.02208 0.0
 -36.363362 46.03017 0.0
 -35.513914 44.531987 0.0
 -37.248267 44.532642 0.0
 -36.377883 45.031788 0.0
 -39.859637 46.031385 0.0
 -38.984785 44.532825 0.0
 -40.720532 44.532705 0.0
 -39.853692 45.032515 0.0
 -38.115336 45.032529 0.0
 -38.985267 46.530246 0.0
 -37.228282 46.529576 0.0
 -38.109873 46.031081 0.0
 -34.645173 45.029454 0.0
 -35.477719 46.525097 0.0
 -33.750869 46.508945 0.0
 -34.623499 46.024182 0.0
 -36.261179 48.019303 0.0
 -36.147945 49.010021 0.0
 -38.996749 49.506335 0.0
 -37.047694 49.506135 0.0
 -32.817068 47.893184 0.0
 -33.170029 49.489539 0.0
 -35.100251 49.503886 0.0
 -32.520743 48.898217 0.0
 -34.270281 48.993425 0.0
 -33.661885 47.490117 0.0
 -35.409015 47.518779 0.0
 -34.465811 47.999036 0.0
 -45.469282 48.896328 0.0
 -44.315676 47.48624 0.0
 -45.929167 47.390812 0.0
 -45.166897 47.887307 0.0
 -43.347876 46.023017 0.0
 -42.455809 44.531533 0.0
 -44.187183 44.528603 0.0
 -43.326097 45.028129 0.0
 -46.748607 45.997246 0.0
 -45.902225 44.524835 0.0
 -47.561207 44.515389 0.0
 -46.74607 45.013004 0.0
 -45.051171 45.023265 0.0
 -45.920154 46.48952 0.0
 -44.224354 46.503934 0.0
 -45.066563 46.003709 0.0
 -49.159416 46.110847 0.0
 -49.647485 45.108492 0.0
 -48.292354 44.948073 0.0
 -47.623542 46.494444 0.0
 -48.352152 45.942886 0.0
 -49.511931 47.002355 0.0
 -49.61305 48.897878 0.0
 -46.691516 47.897799 0.0
 -46.439306 48.904415 0.0
 -48.946383 49.564544 0.0
 -47.126631 49.497966 0.0
 -48.073014 49.06251 0.0
 -47.557438 47.493705 0.0
 -49.124981 47.900233 0.0
 -48.251612 48.064865 0.0
 -41.591047 45.031787 0.0
 -42.494509 46.524265 0.0
 -40.743397 46.52942 0.0
 -41.607968 46.029632 0.0
 -43.512942 47.998468 0.0
 -43.718154 48.993086 0.0
 -44.823273 49.489879 0.0
 -42.894881 49.503207 0.0
 -39.90136 48.021898 0.0
 -40.948044 49.505715 0.0
 -39.944793 49.012049 0.0
 -41.842926 49.008921 0.0
 -40.783196 47.524386 0.0
 -42.568253 47.517411 0.0
 -41.72151 48.017743 0.0
 -27.727596 45.032476 0.0
 -28.623824 46.527609 0.0
 -26.869818 46.530341 0.0
 -27.739188 46.030952 0.0
 -29.614956 48.005815 0.0
 -29.777115 48.998288 0.0
 -30.85486 49.493635 0.0
 -28.922255 49.504653 0.0
 -25.993757 48.0222 0.0
 -26.97369 49.506026 0.0
 -27.895944 49.010679 0.0
 -25.996557 49.012249 0.0
 -26.890302 47.525497 0.0
 -28.679508 47.521699 0.0
 -27.815357 48.020199 0.0
 0.000401 45.032724 0.0
 -0.878154 46.530272 0.0
 0.878731 46.530405 0.0
 0.000485 46.031459 0.0
 -1.819546 48.020676 0.0
 -0.975559 49.506151 0.0
 -2.922415 49.504893 0.0
 -1.897974 49.011044 0.0
 1.820357 48.020671 0.0
 1.898776 49.010874 0.0
 0.975328 49.506048 0.0
 0.896992 47.525635 0.0
 -0.000231 49.012199 0.0
 -0.897049 47.525572 0.0
 -0.000149 48.021988 0.0
 49.524463 35.005466 0.0
 49.102781 32.448897 0.0
 48.296499 31.091094 0.0
 47.645924 29.531255 0.0
 48.368594 30.09052 0.0
 49.524646 29.006214 0.0
 49.102096 26.448137 0.0
 46.755846 28.015741 0.0
 47.561509 26.513817 0.0
 45.899738 26.525035 0.0
 46.744198 27.015289 0.0
 48.295218 26.947385 0.0
 47.645328 28.514059 0.0
 49.174266 28.114593 0.0
 48.367388 27.947175 0.0
 49.524511 23.004642 0.0
 49.102565 20.447318 0.0
 45.044531 25.027307 0.0
 45.911955 23.526276 0.0
 44.181771 23.526197 0.0
 45.045089 24.026939 0.0
 46.756059 22.014269 0.0
 47.561925 20.512176 0.0
 45.899684 20.52309 0.0
 46.744656 21.013538 0.0
 43.315734 22.025514 0.0
 44.180939 20.524988 0.0
 42.449734 20.525134 0.0
 43.315564 21.025163 0.0
 45.044135 21.023941 0.0
 44.181686 22.525653 0.0
 45.911664 22.524136 0.0
 45.044713 22.024256 0.0
 48.29618 20.946079 0.0
 47.645451 22.511641 0.0
 49.174689 22.112719 0.0
 48.368304 21.944812 0.0
 46.756562 24.033055 0.0
 45.899983 25.52655 0.0
 47.562215 25.529974 0.0
 46.745149 25.032961 0.0
 49.648532 24.900952 0.0
 49.173043 23.905594 0.0
 49.649621 27.108379 0.0
 49.101007 25.574043 0.0
 48.294835 25.089448 0.0
 47.645664 23.528286 0.0
 48.366871 24.087666 0.0
 49.65023 30.901195 0.0
 49.174876 29.907409 0.0
 49.65023 33.108776 0.0
 49.102781 31.574649 0.0
 41.583601 19.024647 0.0
 42.449906 17.524127 0.0
 40.717309 17.524122 0.0
 41.583599 18.0243 0.0
 43.316004 16.023509 0.0
 44.181308 14.522897 0.0
 42.449814 14.523055 0.0
 43.3159 15.023145 0.0
 39.85099 16.0236 0.0
 40.717314 14.523079 0.0
 38.984668 14.52308 0.0
 39.85099 15.023253 0.0
 41.583612 15.023244 0.0
 40.71731 16.523774 0.0
 42.449912 16.523767 0.0
 41.583607 16.023592 0.0
 45.045272 13.023145 0.0
 45.912537 11.522219 0.0
 44.18195 11.522061 0.0
 45.045888 12.022855 0.0
 46.75778 10.011011 0.0
 47.564098 8.509148 0.0
 45.900692 8.519156 0.0
 46.747069 9.010343 0.0
 43.315824 10.021376 0.0
 44.181189 8.520853 0.0
 42.449776 8.520973 0.0
 43.315673 9.021023 0.0
 45.044668 9.019937 0.0
 44.181864 10.521538 0.0
 45.911928 10.520157 0.0
 45.045193 10.020269 0.0
 38.118343 13.022559 0.0
 38.984669 11.522039 0.0
 37.252017 11.522039 0.0
 38.118343 12.022212 0.0
 39.850989 10.021517 0.0
 40.717311 8.520997 0.0
 38.984667 8.520997 0.0
 39.850988 9.02117 0.0
 36.385691 10.021518 0.0
 37.252017 8.520998 0.0
 35.519365 8.520998 0.0
 36.385691 9.021171 0.0
 38.118342 9.021171 0.0
 37.252017 10.521692 0.0
 38.984668 10.521692 0.0
 38.118342 10.021518 0.0
 41.583592 9.021157 0.0
 40.71731 10.521689 0.0
 42.449925 10.521671 0.0
 41.583591 10.021502 0.0
 39.850994 12.022212 0.0
 38.984668 13.522733 0.0
 40.717317 13.522733 0.0
 39.850993 13.022559 0.0
 43.315907 12.022263 0.0
 42.449794 13.52272 0.0
 44.181203 13.522687 0.0
 43.315776 13.022599 0.0
 41.583595 13.022562 0.0
 42.449922 11.522035 0.0
 40.717314 11.522037 0.0
 41.583592 12.022213 0.0
 48.295883 7.085322 0.0
 47.645385 5.524644 0.0
 48.368022 6.085052 0.0
 49.524599 5.00455 0.0
 49.10209 2.444782 0.0
 46.755893 4.008174 0.0
 47.561508 2.506988 0.0
 45.899745 2.517032 0.0
 46.744204 3.007726 0.0
 48.29521 2.941718 0.0
 47.645322 4.507511 0.0
 49.174214 4.111524 0.0
 48.367335 3.941793 0.0
 49.524511 -0.997016 0.0
 49.102565 -3.556044 0.0
 45.044532 1.019099 0.0
 45.911955 -0.481724 0.0
 44.181771 -0.48208 0.0
 45.045089 0.018746 0.0
 46.756059 -1.993314 0.0
 47.561925 -3.494661 0.0
 45.899684 -3.484912 0.0
 46.744656 -2.994042 0.0
 43.315734 -1.982795 0.0
 44.180939 -3.483297 0.0
 42.449733 -3.483188 0.0
 43.315564 -2.983143 0.0
 45.044135 -2.984254 0.0
 44.181686 -1.48262 0.0
 45.911664 -1.483855 0.0
 45.044713 -1.983926 0.0
 48.29618 -3.059614 0.0
 47.645451 -1.494918 0.0
 49.174689 -1.890362 0.0
 48.368304 -2.060599 0.0
 46.756563 0.025475 0.0
 45.899984 1.518538 0.0
 47.562215 1.523138 0.0
 46.745149 1.025383 0.0
 49.648532 0.89957 0.0
 49.173043 -0.097447 0.0
 49.649615 3.106974 0.0
 49.101007 1.570711 0.0
 48.294835 1.083797 0.0
 47.645664 -0.478261 0.0
 48.366871 0.082306 0.0
 34.653039 7.020477 0.0
 35.519365 5.519956 0.0
 33.786713 5.519956 0.0
 34.653039 6.02013 0.0
 36.385691 4.019436 0.0
 37.252017 2.518915 0.0
 35.519365 2.518915 0.0
 36.385691 3.019089 0.0
 32.920387 4.019436 0.0
 33.786713 2.518915 0.0
 32.054061 2.518915 0.0
 32.920387 3.019089 0.0
 34.653039 3.019089 0.0
 33.786713 4.519609 0.0
 35.519365 4.519609 0.0
 34.653039 4.019436 0.0
 38.118343 1.018395 0.0
 38.984669 -0.482126 0.0
 37.252017 -0.482126 0.0
 38.118343 0.018048 0.0
 39.850988 -1.982648 0.0
 40.717308 -3.483168 0.0
 38.984667 -3.483167 0.0
 39.850986 -2.982995 0.0
 36.385691 -1.982647 0.0
 37.252017 -3.483167 0.0
 35.519365 -3.483167 0.0
 36.385691 -2.982994 0.0
 38.118342 -2.982994 0.0
 37.252017 -1.482473 0.0
 38.984668 -1.482473 0.0
 38.118342 -1.982647 0.0
 31.187735 1.018395 0.0
 32.054061 -0.482126 0.0
 30.321409 -0.482126 0.0
 31.187735 0.018048 0.0
 32.920387 -1.982647 0.0
 33.786713 -3.483167 0.0
 32.054061 -3.483167 0.0
 32.920387 -2.982994 0.0
 29.455083 -1.982647 0.0
 30.321409 -3.483167 0.0
 28.588757 -3.483167 0.0
 29.455083 -2.982994 0.0
 31.187735 -2.982994 0.0
 30.321409 -1.482473 0.0
 32.054061 -1.482473 0.0
 31.187735 -1.982647 0.0
 34.653039 -2.982994 0.0
 33.786713 -1.482473 0.0
 35.519365 -1.482473 0.0
 34.653039 -1.982647 0.0
 32.920387 0.018048 0.0
 32.054061 1.518568 0.0
 33.786713 1.518568 0.0
 32.920387 1.018395 0.0
 36.385691 0.018048 0.0
 35.519365 1.518568 0.0
 37.252017 1.518568 0.0
 36.385691 1.018395 0.0
 34.653039 1.018395 0.0
 35.519365 -0.482126 0.0
 33.786713 -0.482126 0.0
 34.653039 0.018048 0.0
 41.583579 -2.983008 0.0
 40.717306 -1.482477 0.0
 42.449901 -1.482496 0.0
 41.583576 -1.982664 0.0
 39.850993 0.018047 0.0
 38.984668 1.518568 0.0
 40.717315 1.518568 0.0
 39.850992 1.018394 0.0
 43.315828 0.018111 0.0
 42.449765 1.518575 0.0
 44.181065 1.518629 0.0
 43.315679 1.018467 0.0
 41.583595 1.0184 0.0
 42.44991 -0.482129 0.0
 40.717311 -0.482128 0.0
 41.58359 0.018051 0.0
 38.118343 3.019089 0.0
 37.252017 4.519609 0.0
 38.984668 4.519609 0.0
 38.118343 4.019436 0.0
 36.385691 6.02013 0.0
 35.519365 7.520651 0.0
 37.252017 7.520651 0.0
 36.385691 7.020477 0.0
 39.850993 6.02013 0.0
 38.984668 7.520651 0.0
 40.717315 7.520651 0.0
 39.850992 7.020477 0.0
 38.118343 7.020477 0.0
 38.984668 5.519956 0.0
 37.252017 5.519956 0.0
 38.118343 6.02013 0.0
 45.044251 3.017737 0.0
 44.181747 4.519303 0.0
 45.912013 4.517668 0.0
 45.044829 4.017926 0.0
 43.31599 6.020153 0.0
 42.449794 7.520642 0.0
 44.181351 7.520654 0.0
 43.315854 7.020493 0.0
 46.755372 6.027579 0.0
 45.899847 7.520627 0.0
 47.562111 7.525099 0.0
 46.744237 7.027765 0.0
 45.043986 7.021209 0.0
 45.911429 5.51994 0.0
 44.181934 5.519813 0.0
 45.044432 6.020708 0.0
 41.583614 7.02048 0.0
 42.449929 5.519954 0.0
 40.717314 5.519956 0.0
 41.583613 6.020132 0.0
 43.315764 4.019279 0.0
 44.181023 2.518773 0.0
 42.449747 2.518902 0.0
 43.315619 3.018938 0.0
 39.850987 4.019434 0.0
 40.717309 2.518913 0.0
 38.984668 2.518915 0.0
 39.850987 3.019087 0.0
 41.58357 3.019072 0.0
 40.717308 4.519607 0.0
 42.449891 4.51959 0.0
 41.583569 4.019419 0.0
 49.650238 6.899767 0.0
 49.174837 5.904317 0.0
 49.649333 9.1071 0.0
 49.102699 7.571253 0.0
 48.296965 8.943371 0.0
 47.646963 10.508851 0.0
 49.173947 10.110954 0.0
 48.369118 9.942405 0.0
 46.757776 12.029225 0.0
 45.901233 13.522935 0.0
 47.563617 13.526977 0.0
 46.747088 13.029651 0.0
 49.648659 12.900266 0.0
 49.173273 11.904121 0.0
 49.649684 15.107669 0.0
 49.101229 13.572336 0.0
 48.295787 13.086605 0.0
 47.64635 11.525003 0.0
 48.367831 12.085056 0.0
 45.04502 15.022147 0.0
 44.181959 16.523586 0.0
 45.912348 16.522146 0.0
 45.045567 16.02247 0.0
 43.315901 18.024348 0.0
 42.449753 19.524807 0.0
 44.181101 19.524833 0.0
 43.315747 19.024681 0.0
 46.757104 18.030944 0.0
 45.899899 19.524527 0.0
 47.562666 19.528252 0.0
 46.745612 19.031051 0.0
 45.044513 19.025223 0.0
 45.911998 17.523985 0.0
 44.181862 17.524065 0.0
 45.045121 18.024788 0.0
 49.649236 18.90066 0.0
 49.173923 17.906008 0.0
 49.650178 21.108077 0.0
 49.101623 19.573235 0.0
 48.295979 19.088071 0.0
 47.646457 17.527585 0.0
 48.368279 18.087511 0.0
 49.524687 17.005348 0.0
 49.102254 14.446405 0.0
 46.755572 16.012305 0.0
 47.561532 14.510743 0.0
 45.900876 14.521727 0.0
 46.744647 15.012209 0.0
 48.294727 14.94444 0.0
 47.644575 16.510784 0.0
 49.174371 16.113017 0.0
 48.366844 15.944385 0.0
 49.524614 11.003855 0.0
 49.101794 8.445253 0.0
 27.722431 -4.983688 0.0
 28.588757 -6.484208 0.0
 26.856105 -6.484208 0.0
 27.722431 -5.984035 0.0
 29.455083 -7.984729 0.0
 30.321409 -9.48525 0.0
 28.588757 -9.48525 0.0
 29.455083 -8.985076 0.0
 25.989779 -7.984729 0.0
 26.856105 -9.48525 0.0
 25.123453 -9.48525 0.0
 25.989779 -8.985076 0.0
 27.722431 -8.985076 0.0
 26.856105 -7.484555 0.0
 28.588757 -7.484555 0.0
 27.722431 -7.984729 0.0
 31.187735 -10.98577 0.0
 32.054061 -12.486291 0.0
 30.321409 -12.486291 0.0
 31.187735 -11.986117 0.0
 32.920387 -13.986811 0.0
 33.786713 -15.487332 0.0
 32.054061 -15.487332 0.0
 32.920387 -14.987158 0.0
 29.455083 -13.986811 0.0
 30.321409 -15.487332 0.0
 28.588757 -15.487332 0.0
 29.455083 -14.987158 0.0
 31.187735 -14.987158 0.0
 30.321409 -13.486638 0.0
 32.054061 -13.486638 0.0
 31.187735 -13.986811 0.0
 24.257127 -10.98577 0.0
 25.123453 -12.486291 0.0
 23.390801 -12.486291 0.0
 24.257127 -11.986117 0.0
 25.989779 -13.986811 0.0
 26.856105 -15.487332 0.0
 25.123453 -15.487332 0.0
 25.989779 -14.987158 0.0
 22.524475 -13.986811 0.0
 23.390801 -15.487332 0.0
 21.658149 -15.487332 0.0
 22.524475 -14.987158 0.0
 24.257127 -14.987158 0.0
 23.390801 -13.486638 0.0
 25.123453 -13.486638 0.0
 24.257127 -13.986811 0.0
 27.722431 -14.987158 0.0
 26.856105 -13.486638 0.0
 28.588757 -13.486638 0.0
 27.722431 -13.986811 0.0
 25.989779 -11.986117 0.0
 25.123453 -10.485597 0.0
 26.856105 -10.485597 0.0
 25.989779 -10.98577 0.0
 29.455083 -11.986117 0.0
 28.588757 -10.485597 0.0
 30.321409 -10.485597 0.0
 29.455083 -10.98577 0.0
 27.722431 -10.98577 0.0
 28.588757 -12.486291 0.0
 26.856105 -12.486291 0.0
 27.722431 -11.986117 0.0
 34.653039 -16.987853 0.0
 35.519365 -18.488373 0.0
 33.786713 -18.488373 0.0
 34.653039 -17.9882 0.0
 36.385691 -19.988894 0.0
 37.252017 -21.489414 0.0
 35.519365 -21.489414 0.0
 36.385691 -20.989241 0.0
 32.920387 -19.988894 0.0
 33.786713 -21.489414 0.0
 32.054061 -21.489414 0.0
 32.920387 -20.989241 0.0
 34.653039 -20.989241 0.0
 33.786713 -19.48872 0.0
 35.519365 -19.48872 0.0
 34.653039 -19.988894 0.0
 38.118343 -22.989935 0.0
 38.984668 -24.490455 0.0
 37.252017 -24.490456 0.0
 38.118343 -23.990282 0.0
 39.850993 -25.990976 0.0
 40.717314 -27.491497 0.0
 38.984668 -27.491497 0.0
 39.850992 -26.991324 0.0
 36.385691 -25.990976 0.0
 37.252017 -27.491497 0.0
 35.519365 -27.491497 0.0
 36.385691 -26.991323 0.0
 38.118343 -26.991323 0.0
 37.252017 -25.490803 0.0
 38.984668 -25.490803 0.0
 38.118343 -25.990976 0.0
 31.187735 -22.989935 0.0
 32.054061 -24.490456 0.0
 30.321409 -24.490456 0.0
 31.187735 -23.990282 0.0
 32.920387 -25.990976 0.0
 33.786713 -27.491497 0.0
 32.054061 -27.491497 0.0
 32.920387 -26.991323 0.0
 29.455083 -25.990976 0.0
 30.321409 -27.491497 0.0
 28.588757 -27.491497 0.0
 29.455083 -26.991323 0.0
 31.187735 -26.991323 0.0
 30.321409 -25.490803 0.0
 32.054061 -25.490803 0.0
 31.187735 -25.990976 0.0
 34.653039 -26.991323 0.0
 33.786713 -25.490803 0.0
 35.519365 -25.490803 0.0
 34.653039 -25.990976 0.0
 32.920387 -23.990282 0.0
 32.054061 -22.489761 0.0
 33.786713 -22.489761 0.0
 32.920387 -22.989935 0.0
 36.385691 -23.990282 0.0
 35.519365 -22.489761 0.0
 37.252017 -22.489761 0.0
 36.385691 -22.989935 0.0
 34.653039 -22.989935 0.0
 35.519365 -24.490456 0.0
 33.786713 -24.490456 0.0
 34.653039 -23.990282 0.0
 20.791823 -16.987853 0.0
 21.658149 -18.488373 0.0
 19.925497 -18.488373 0.0
 20.791823 -17.9882 0.0
 22.524475 -19.988894 0.0
 23.390801 -21.489414 0.0
 21.658149 -21.489414 0.0
 22.524475 -20.989241 0.0
 19.059171 -19.988894 0.0
 19.925497 -21.489414 0.0
 18.192845 -21.489414 0.0
 19.059171 -20.989241 0.0
 20.791823 -20.989241 0.0
 19.925497 -19.48872 0.0
 21.658149 -19.48872 0.0
 20.791823 -19.988894 0.0
 24.257127 -22.989935 0.0
 25.123453 -24.490456 0.0
 23.390801 -24.490456 0.0
 24.257127 -23.990282 0.0
 25.989779 -25.990976 0.0
 26.856105 -27.491497 0.0
 25.123453 -27.491497 0.0
 25.989779 -26.991323 0.0
 22.524475 -25.990976 0.0
 23.390801 -27.491497 0.0
 21.658149 -27.491497 0.0
 22.524475 -26.991323 0.0
 24.257127 -26.991323 0.0
 23.390801 -25.490803 0.0
 25.123453 -25.490803 0.0
 24.257127 -25.990976 0.0
 17.326519 -22.989935 0.0
 18.192845 -24.490456 0.0
 16.460194 -24.490456 0.0
 17.326519 -23.990282 0.0
 19.059171 -25.990976 0.0
 19.925497 -27.491497 0.0
 18.192845 -27.491497 0.0
 19.059171 -26.991323 0.0
 15.593868 -25.990976 0.0
 16.460194 -27.491497 0.0
 14.727542 -27.491497 0.0
 15.593868 -26.991323 0.0
 17.326519 -26.991323 0.0
 16.460194 -25.490803 0.0
 18.192845 -25.490803 0.0
 17.326519 -25.990976 0.0
 20.791823 -26.991323 0.0
 19.925497 -25.490803 0.0
 21.658149 -25.490803 0.0
 20.791823 -25.990976 0.0
 19.059171 -23.990282 0.0
 18.192845 -22.489761 0.0
 19.925497 -22.489761 0.0
 19.059171 -22.989935 0.0
 22.524475 -23.990282 0.0
 21.658149 -22.489761 0.0
 23.390801 -22.489761 0.0
 22.524475 -22.989935 0.0
 20.791823 -22.989935 0.0
 21.658149 -24.490456 0.0
 19.925497 -24.490456 0.0
 20.791823 -23.990282 0.0
 27.722431 -26.991323 0.0
 26.856105 -25.490803 0.0
 28.588757 -25.490803 0.0
 27.722431 -25.990976 0.0
 25.989779 -23.990282 0.0
 25.123453 -22.489761 0.0
 26.856105 -22.489761 0.0
 25.989779 -22.989935 0.0
 29.455083 -23.990282 0.0
 28.588757 -22.489761 0.0
 30.321409 -22.489761 0.0
 29.455083 -22.989935 0.0
 27.722431 -22.989935 0.0
 28.588757 -24.490456 0.0
 26.856105 -24.490456 0.0
 27.722431 -23.990282 0.0
 24.257127 -20.989241 0.0
 23.390801 -19.48872 0.0
 25.123453 -19.48872 0.0
 24.257127 -19.988894 0.0
 22.524475 -17.9882 0.0
 21.658149 -16.487679 0.0
 23.390801 -16.487679 0.0
 22.524475 -16.987853 0.0
 25.989779 -17.9882 0.0
 25.123453 -16.487679 0.0
 26.856105 -16.487679 0.0
 25.989779 -16.987853 0.0
 24.257127 -16.987853 0.0
 25.123453 -18.488373 0.0
 23.390801 -18.488373 0.0
 24.257127 -17.9882 0.0
 31.187735 -20.989241 0.0
 30.321409 -19.48872 0.0
 32.054061 -19.48872 0.0
 31.187735 -19.988894 0.0
 29.455083 -17.9882 0.0
 28.588757 -16.487679 0.0
 30.321409 -16.487679 0.0
 29.455083 -16.987853 0.0
 32.920387 -17.9882 0.0
 32.054061 -16.487679 0.0
 33.786713 -16.487679 0.0
 32.920387 -16.987853 0.0
 31.187735 -16.987853 0.0
 32.054061 -18.488373 0.0
 30.321409 -18.488373 0.0
 31.187735 -17.9882 0.0
 27.722431 -16.987853 0.0
 28.588757 -18.488373 0.0
 26.856105 -18.488373 0.0
 27.722431 -17.9882 0.0
 29.455083 -19.988894 0.0
 30.321409 -21.489414 0.0
 28.588757 -21.489414 0.0
 29.455083 -20.989241 0.0
 25.989779 -19.988894 0.0
 26.856105 -21.489414 0.0
 25.123453 -21.489414 0.0
 25.989779 -20.989241 0.0
 27.722431 -20.989241 0.0
 26.856105 -19.48872 0.0
 28.588757 -19.48872 0.0
 27.722431 -19.988894 0.0
 41.583619 -28.99201 0.0
 42.44992 -30.492525 0.0
 40.717312 -30.492536 0.0
 41.583617 -29.992356 0.0
 43.315999 -31.993126 0.0
 44.181305 -33.493691 0.0
 42.449813 -33.493595 0.0
 43.315898 -32.993488 0.0
 39.850991 -31.993059 0.0
 40.717315 -33.49358 0.0
 38.984668 -33.493579 0.0
 39.85099 -32.993406 0.0
 41.583612 -32.993412 0.0
 40.717311 -31.492884 0.0
 42.449911 -31.492884 0.0
 41.583608 -31.993064 0.0
 45.045272 -34.993294 0.0
 45.912537 -36.493799 0.0
 44.18195 -36.494498 0.0
 45.045888 -35.993557 0.0
 46.75778 -38.004194 0.0
 47.564098 -39.504576 0.0
 45.900692 -39.496872 0.0
 46.747068 -39.004873 0.0
 43.315824 -37.995244 0.0
 44.181188 -39.495722 0.0
 42.449775 -39.49567 0.0
 43.315673 -38.99559 0.0
 45.044668 -38.996467 0.0
 44.181864 -37.495013 0.0
 45.911928 -37.49583 0.0
 45.045192 -37.996104 0.0
 38.118343 -34.9941 0.0
 38.984669 -36.49462 0.0
 37.252017 -36.49462 0.0
 38.118343 -35.994447 0.0
 39.850989 -37.995142 0.0
 40.717311 -39.495659 0.0
 38.984668 -39.49566 0.0
 39.850988 -38.995488 0.0
 36.385691 -37.995141 0.0
 37.252018 -39.495659 0.0
 35.519367 -39.495659 0.0
 36.385692 -38.995486 0.0
 38.118343 -38.995487 0.0
 37.252017 -37.494967 0.0
 38.984668 -37.494967 0.0
 38.118342 -37.995141 0.0
 41.583592 -38.995496 0.0
 40.71731 -37.494969 0.0
 42.449925 -37.49498 0.0
 41.58359 -37.995152 0.0
 39.850994 -35.994447 0.0
 38.984668 -34.493926 0.0
 40.717317 -34.493926 0.0
 39.850993 -34.9941 0.0
 43.315907 -35.994365 0.0
 42.449794 -34.493929 0.0
 44.181203 -34.493895 0.0
 43.315776 -34.994026 0.0
 41.583595 -34.994093 0.0
 42.449922 -36.494617 0.0
 40.717314 -36.494621 0.0
 41.583592 -35.994441 0.0
 48.295884 -40.926027 0.0
 47.64539 -42.48828 0.0
 48.368025 -41.925669 0.0
 49.524602 -42.998702 0.0
 49.102226 -45.556541 0.0
 46.755889 -44.00478 0.0
 47.561927 -45.495331 0.0
 45.899319 -45.48778 0.0
 46.744456 -44.999745 0.0
 48.295388 -45.063191 0.0
 47.645368 -43.504369 0.0
 49.174233 -43.893878 0.0
 48.367396 -44.067195 0.0
 49.526086 -48.872813 0.0
 45.037815 -46.945938 0.0
 45.928627 -48.316675 0.0
 44.121983 -48.325821 0.0
 45.030812 -47.874096 0.0
 46.950465 -49.585678 0.0
 44.069333 -49.182722 0.0
 45.007689 -49.58951 0.0
 45.958154 -49.175188 0.0
 46.784579 -47.852769 0.0
 48.859419 -49.539479 0.0
 47.809884 -49.125158 0.0
 45.901335 -46.463488 0.0
 47.565739 -46.447617 0.0
 46.750285 -46.927739 0.0
 49.648856 -47.077976 0.0
 49.174942 -47.950789 0.0
 49.649632 -44.895176 0.0
 49.10145 -46.406008 0.0
 48.298425 -46.864945 0.0
 47.673525 -48.250762 0.0
 48.371917 -47.74306 0.0
 34.653061 -40.996145 0.0
 35.519532 -42.496483 0.0
 33.786793 -42.496492 0.0
 34.653121 -41.99639 0.0
 36.387502 -43.995129 0.0
 37.26249 -45.485991 0.0
 35.527942 -45.487746 0.0
 36.392382 -44.990672 0.0
 32.920738 -43.995274 0.0
 33.79064 -45.488004 0.0
 32.053095 -45.487766 0.0
 32.921411 -44.991046 0.0
 34.657073 -44.991548 0.0
 33.787216 -43.49593 0.0
 35.52031 -43.495902 0.0
 34.654322 -43.995247 0.0
 38.168864 -46.932009 0.0
 39.127915 -48.222051 0.0
 37.47694 -48.312289 0.0
 38.274137 -47.850069 0.0
 41.12846 -49.580479 0.0
 36.88164 -49.593327 0.0
 35.816942 -49.185849 0.0
 38.815961 -49.578232 0.0
 31.170394 -46.949199 0.0
 39.449078 -49.090944 0.0
 37.697601 -49.171559 0.0
 32.035421 -48.329355 0.0
 30.216074 -48.327566 0.0
 31.143933 -47.878439 0.0
 32.984933 -49.594379 0.0
 31.034558 -49.590832 0.0
 30.122629 -49.184103 0.0
 32.019491 -49.185211 0.0
 33.920235 -49.186902 0.0
 34.935302 -49.592523 0.0
 32.939543 -47.880774 0.0
 32.051096 -46.467044 0.0
 33.799986 -46.465382 0.0
 32.928757 -46.947703 0.0
 36.523763 -47.87474 0.0
 35.550145 -46.463576 0.0
 37.290231 -46.461971 0.0
 36.442326 -46.942483 0.0
 34.688621 -46.944757 0.0
 35.679725 -48.326533 0.0
 33.858915 -48.329152 0.0
 34.736765 -47.875457 0.0
 40.428244 -49.093191 0.0
 42.190104 -49.173691 0.0
 39.878113 -47.772159 0.0
 43.061644 -49.593212 0.0
 39.008015 -46.447625 0.0
 40.710471 -46.445314 0.0
 39.863486 -46.915794 0.0
 43.247732 -47.874334 0.0
 42.428059 -46.457699 0.0
 44.169474 -46.463501 0.0
 43.28822 -46.940171 0.0
 41.558753 -46.92699 0.0
 42.323542 -48.311713 0.0
 40.66107 -48.221531 0.0
 41.494724 -47.846841 0.0
 38.124582 -44.98891 0.0
 37.253218 -43.495586 0.0
 38.985603 -43.494832 0.0
 38.120191 -43.994047 0.0
 36.385827 -41.996368 0.0
 35.519381 -40.495988 0.0
 37.252048 -40.495962 0.0
 36.385735 -40.996118 0.0
 39.85103 -41.996371 0.0
 38.984691 -40.49596 0.0
 40.717317 -40.495985 0.0
 39.851017 -40.996113 0.0
 38.118395 -40.99609 0.0
 38.984886 -42.496249 0.0
 37.252322 -42.496243 0.0
 38.118578 -41.996122 0.0
 45.043133 -44.991668 0.0
 44.181232 -43.49554 0.0
 45.911915 -43.496909 0.0
 45.044296 -43.995762 0.0
 43.315948 -41.996359 0.0
 42.44979 -40.495989 0.0
 44.181342 -40.495895 0.0
 43.31584 -40.996082 0.0
 46.755369 -41.987394 0.0
 45.899841 -40.495331 0.0
 47.562112 -40.488556 0.0
 46.744231 -40.987312 0.0
 45.043971 -40.995098 0.0
 45.911372 -42.495613 0.0
 44.181843 -42.496372 0.0
 45.044364 -41.995298 0.0
 41.583612 -40.99614 0.0
 42.449878 -42.496525 0.0
 40.717311 -42.496502 0.0
 41.583593 -41.9964 0.0
 43.31469 -43.994404 0.0
 44.176809 -45.484938 0.0
 42.443934 -45.483988 0.0
 43.31143 -44.987897 0.0
 39.85169 -43.99336 0.0
 40.716697 -45.480811 0.0
 38.991474 -45.480506 0.0
 39.853171 -44.984172 0.0
 41.580853 -44.988776 0.0
 40.717255 -43.494909 0.0
 42.449232 -43.495404 0.0
 41.582891 -43.993684 0.0
 13.861216 -28.992017 0.0
 14.727542 -30.492538 0.0
 12.99489 -30.492538 0.0
 13.861216 -29.992364 0.0
 15.593868 -31.993059 0.0
 16.460194 -33.493579 0.0
 14.727542 -33.493579 0.0
 15.593868 -32.993406 0.0
 12.128564 -31.993059 0.0
 12.99489 -33.493579 0.0
 11.262238 -33.493579 0.0
 12.128564 -32.993406 0.0
 13.861216 -32.993406 0.0
 12.99489 -31.492885 0.0
 14.727542 -31.492885 0.0
 13.861216 -31.993059 0.0
 17.326519 -34.9941 0.0
 18.192845 -36.49462 0.0
 16.460194 -36.49462 0.0
 17.326519 -35.994447 0.0
 19.059171 -37.995141 0.0
 19.925498 -39.495659 0.0
 18.192845 -39.49566 0.0
 19.059172 -38.995487 0.0
 15.593868 -37.995141 0.0
 16.460193 -39.49566 0.0
 14.727542 -39.495659 0.0
 15.593868 -38.995487 0.0
 17.326519 -38.995487 0.0
 16.460193 -37.494967 0.0
 18.192845 -37.494967 0.0
 17.326519 -37.995141 0.0
 10.395912 -34.9941 0.0
 11.262238 -36.49462 0.0
 9.529586 -36.49462 0.0
 10.395912 -35.994447 0.0
 12.128564 -37.995141 0.0
 12.99489 -39.495659 0.0
 11.262239 -39.49566 0.0
 12.128564 -38.995487 0.0
 8.66326 -37.995141 0.0
 9.529587 -39.49566 0.0
 7.796934 -39.495659 0.0
 8.66326 -38.995486 0.0
 10.395912 -38.995487 0.0
 9.529586 -37.494967 0.0
 11.262238 -37.494967 0.0
 10.395912 -37.995141 0.0
 13.861216 -38.995486 0.0
 12.99489 -37.494967 0.0
 14.727542 -37.494967 0.0
 13.861216 -37.995141 0.0
 12.128564 -35.994447 0.0
 11.262238 -34.493926 0.0
 12.99489 -34.493926 0.0
 12.128564 -34.9941 0.0
 15.593868 -35.994447 0.0
 14.727542 -34.493926 0.0
 16.460194 -34.493926 0.0
 15.593868 -34.9941 0.0
 13.861216 -34.9941 0.0
 14.727542 -36.49462 0.0
 12.99489 -36.49462 0.0
 13.861216 -35.994447 0.0
 20.791836 -40.996144 0.0
 21.65826 -42.496483 0.0
 19.925523 -42.49649 0.0
 20.791869 -41.99639 0.0
 22.525789 -43.995129 0.0
 23.398717 -45.485991 0.0
 21.664103 -45.487743 0.0
 22.529457 -44.990671 0.0
 19.059051 -43.995236 0.0
 19.92682 -45.487952 0.0
 18.189675 -45.487439 0.0
 19.05853 -44.990963 0.0
 20.794221 -44.991543 0.0
 19.925701 -43.495926 0.0
 21.658795 -43.495901 0.0
 20.792582 -43.995244 0.0
 24.295317 -46.932009 0.0
 25.226431 -48.222051 0.0
 23.569669 -48.312288 0.0
 24.381579 -47.850069 0.0
 27.155038 -49.580485 0.0
 22.908025 -49.593327 0.0
 21.869142 -49.185842 0.0
 23.750142 -49.171559 0.0
 25.506495 -49.090944 0.0
 17.300218 -46.946465 0.0
 24.842116 -49.578232 0.0
 18.129987 -48.327602 0.0
 16.330191 -48.313789 0.0
 17.255927 -47.874514 0.0
 17.0622 -49.589394 0.0
 16.192931 -49.172573 0.0
 18.073519 -49.183698 0.0
 19.011319 -49.594304 0.0
 19.972435 -49.186819 0.0
 20.961116 -49.592515 0.0
 19.046158 -47.880421 0.0
 18.182152 -46.46651 0.0
 19.929845 -46.465296 0.0
 19.054032 -46.947378 0.0
 22.629699 -47.874735 0.0
 21.679655 -46.463569 0.0
 23.42061 -46.461971 0.0
 22.566902 -46.942478 0.0
 20.812798 -46.944713 0.0
 21.771288 -48.326521 0.0
 19.950806 -48.329032 0.0
 20.841634 -47.875407 0.0
 6.930612 -40.996145 0.0
 7.797007 -42.496493 0.0
 6.064255 -42.496493 0.0
 6.930622 -41.996393 0.0
 8.664451 -43.995325 0.0
 9.538098 -45.487661 0.0
 7.800895 -45.48812 0.0
 8.667426 -44.991173 0.0
 5.197314 -43.995244 0.0
 6.062979 -45.487992 0.0
 4.325737 -45.487444 0.0
 5.195536 -44.990976 0.0
 6.931475 -44.991614 0.0
 6.064194 -43.495935 0.0
 7.797358 -43.495946 0.0
 6.930913 -43.995289 0.0
 10.449026 -46.946455 0.0
 11.483893 -48.314325 0.0
 9.686949 -48.327006 0.0
 10.532628 -47.874468 0.0
 13.451164 -49.093047 0.0
 11.702167 -49.172451 0.0
 8.936047 -49.594413 0.0
 3.42569 -46.946467 0.0
 10.886944 -49.589388 0.0
 9.822991 -49.183801 0.0
 4.221891 -48.327608 0.0
 2.422903 -48.31379 0.0
 3.361766 -47.874516 0.0
 3.087641 -49.589394 0.0
 2.245423 -49.172574 0.0
 4.125246 -49.183702 0.0
 5.037605 -49.594308 0.0
 6.987106 -49.59264 0.0
 6.024711 -49.186948 0.0
 7.923154 -49.187053 0.0
 5.152294 -47.880453 0.0
 4.312383 -46.466517 0.0
 6.05966 -46.465354 0.0
 5.178862 -46.947411 0.0
 8.742214 -47.878729 0.0
 7.810436 -46.464344 0.0
 9.558083 -46.465963 0.0
 8.696951 -46.945699 0.0
 6.937697 -46.9452 0.0
 7.865363 -48.328164 0.0
 6.042756 -48.329187 0.0
 6.947361 -47.87599 0.0
 12.815222 -49.583063 0.0
 14.433339 -49.093163 0.0
 12.280729 -47.853634 0.0
 15.130731 -49.583179 0.0
 11.300611 -46.460959 0.0
 13.020643 -46.446124 0.0
 12.181049 -46.92828 0.0
 15.503796 -47.851435 0.0
 14.718891 -46.444192 0.0
 16.438849 -46.459994 0.0
 15.568163 -46.92569 0.0
 13.874239 -46.915455 0.0
 14.669145 -48.220203 0.0
 13.134944 -48.221743 0.0
 13.88886 -47.76572 0.0
 10.402653 -44.990565 0.0
 9.530642 -43.495795 0.0
 11.263775 -43.495191 0.0
 10.398172 -43.994548 0.0
 8.663352 -41.996381 0.0
 7.796941 -40.495989 0.0
 9.529616 -40.495968 0.0
 8.663296 -40.996125 0.0
 12.128659 -41.996391 0.0
 11.26227 -40.495967 0.0
 12.9949 -40.495987 0.0
 12.128605 -40.996122 0.0
 10.395973 -40.996103 0.0
 11.262546 -42.496317 0.0
 9.529895 -42.496305 0.0
 10.396196 -41.996183 0.0
 17.323276 -44.990421 0.0
 16.459469 -43.495134 0.0
 18.192447 -43.495713 0.0
 17.325528 -43.994423 0.0
 15.593832 -41.996392 0.0
 14.727541 -40.49599 0.0
 16.460181 -40.495968 0.0
 15.593855 -40.996126 0.0
 19.059151 -41.996376 0.0
 18.192833 -40.495963 0.0
 19.9255 -40.495988 0.0
 19.059162 -40.996119 0.0
 17.326495 -40.996099 0.0
 18.192726 -42.496289 0.0
 16.460061 -42.496303 0.0
 17.326398 -41.996168 0.0
 13.861225 -40.996145 0.0
 14.727535 -42.496511 0.0
 12.99497 -42.496512 0.0
 13.861242 -41.996401 0.0
 15.592978 -43.993796 0.0
 16.454383 -45.483022 0.0
 14.725337 -45.481161 0.0
 15.590143 -44.985686 0.0
 12.130739 -43.993726 0.0
 13.002688 -45.481321 0.0
 11.274224 -45.483371 0.0
 12.136707 -44.985889 0.0
 13.86273 -44.98762 0.0
 12.995821 -43.494972 0.0
 14.727273 -43.495085 0.0
 13.861831 -43.993434 0.0
 26.486084 -49.093197 0.0
 28.243109 -49.173756 0.0
 25.991104 -47.772161 0.0
 29.088071 -49.593271 0.0
 25.139086 -46.447626 0.0
 26.841184 -46.445316 0.0
 25.990021 -46.915795 0.0
 29.354668 -47.874802 0.0
 28.557821 -46.457808 0.0
 30.301369 -46.464167 0.0
 29.413502 -46.940643 0.0
 27.684373 -46.927037 0.0
 28.41626 -48.311824 0.0
 26.75954 -48.221539 0.0
 27.601646 -47.846894 0.0
 24.261744 -44.98891 0.0
 23.391695 -43.495586 0.0
 25.124013 -43.494832 0.0
 24.25839 -43.994047 0.0
 22.524573 -41.996368 0.0
 21.658162 -40.495983 0.0
 23.390825 -40.495957 0.0
 22.524509 -40.996113 0.0
 25.98979 -41.996372 0.0
 25.123469 -40.495954 0.0
 26.856105 -40.49598 0.0
 25.989793 -40.996108 0.0
 24.257163 -40.99609 0.0
 25.12359 -42.49625 0.0
 23.391014 -42.496243 0.0
 24.257287 -41.996122 0.0
 31.185361 -44.990923 0.0
 30.320553 -43.495397 0.0
 32.053893 -43.495776 0.0
 31.186832 -43.994706 0.0
 29.455017 -41.996412 0.0
 28.588747 -40.495987 0.0
 30.321392 -40.495969 0.0
 29.455059 -40.996128 0.0
 32.920397 -41.996381 0.0
 32.054052 -40.495962 0.0
 33.78672 -40.495983 0.0
 32.920385 -40.996118 0.0
 31.187712 -40.996107 0.0
 32.053976 -42.496322 0.0
 30.321261 -42.49635 0.0
 31.187623 -41.996204 0.0
 27.722422 -40.996146 0.0
 28.588672 -42.496531 0.0
 26.856068 -42.496503 0.0
 27.722389 -41.996405 0.0
 29.453383 -43.994332 0.0
 30.314337 -45.485168 0.0
 28.579989 -45.48405 0.0
 29.448638 -44.987886 0.0
 25.989839 -43.99336 0.0
 26.852721 -45.480812 0.0
 25.127405 -45.480507 0.0
 25.989877 -44.984172 0.0
 27.718078 -44.988775 0.0
 26.855694 -43.494909 0.0
 28.587746 -43.495404 0.0
 27.721089 -43.993683 0.0
 20.791824 -38.995486 0.0
 19.925498 -37.494967 0.0
 21.65815 -37.494967 0.0
 20.791824 -37.99514 0.0
 19.059171 -35.994447 0.0
 18.192845 -34.493926 0.0
 19.925497 -34.493926 0.0
 19.059171 -34.9941 0.0
 22.524475 -35.994447 0.0
 21.658149 -34.493926 0.0
 23.390801 -34.493926 0.0
 22.524475 -34.9941 0.0
 20.791823 -34.9941 0.0
 21.658149 -36.49462 0.0
 19.925497 -36.49462 0.0
 20.791823 -35.994447 0.0
 17.326519 -32.993406 0.0
 16.460194 -31.492885 0.0
 18.192845 -31.492885 0.0
 17.326519 -31.993059 0.0
 15.593868 -29.992364 0.0
 14.727542 -28.491844 0.0
 16.460194 -28.491844 0.0
 15.593868 -28.992017 0.0
 19.059171 -29.992364 0.0
 18.192845 -28.491844 0.0
 19.925497 -28.491844 0.0
 19.059171 -28.992017 0.0
 17.326519 -28.992017 0.0
 18.192845 -30.492538 0.0
 16.460194 -30.492538 0.0
 17.326519 -29.992364 0.0
 24.257127 -32.993406 0.0
 23.390801 -31.492885 0.0
 25.123453 -31.492885 0.0
 24.257127 -31.993059 0.0
 22.524475 -29.992364 0.0
 21.658149 -28.491844 0.0
 23.390801 -28.491844 0.0
 22.524475 -28.992017 0.0
 25.989779 -29.992364 0.0
 25.123453 -28.491844 0.0
 26.856105 -28.491844 0.0
 25.989779 -28.992017 0.0
 24.257127 -28.992017 0.0
 25.123453 -30.492538 0.0
 23.390801 -30.492538 0.0
 24.257127 -29.992364 0.0
 20.791823 -28.992017 0.0
 21.658149 -30.492538 0.0
 19.925497 -30.492538 0.0
 20.791823 -29.992364 0.0
 22.524475 -31.993059 0.0
 23.390801 -33.493579 0.0
 21.658149 -33.493579 0.0
 22.524475 -32.993406 0.0
 19.059171 -31.993059 0.0
 19.925497 -33.493579 0.0
 18.192845 -33.493579 0.0
 19.059171 -32.993406 0.0
 20.791823 -32.993406 0.0
 19.925497 -31.492885 0.0
 21.658149 -31.492885 0.0
 20.791823 -31.993059 0.0
 34.65304 -38.995486 0.0
 33.786713 -37.494967 0.0
 35.519365 -37.494967 0.0
 34.653039 -37.99514 0.0
 32.920387 -35.994447 0.0
 32.054061 -34.493926 0.0
 33.786713 -34.493926 0.0
 32.920387 -34.9941 0.0
 36.385691 -35.994447 0.0
 35.519365 -34.493926 0.0
 37.252017 -34.493926 0.0
 36.385691 -34.9941 0.0
 34.653039 -34.9941 0.0
 35.519365 -36.49462 0.0
 33.786713 -36.49462 0.0
 34.653039 -35.994447 0.0
 31.187735 -32.993406 0.0
 30.321409 -31.492885 0.0
 32.054061 -31.492885 0.0
 31.187735 -31.993059 0.0
 29.455083 -29.992364 0.0
 28.588757 -28.491844 0.0
 30.321409 -28.491844 0.0
 29.455083 -28.992017 0.0
 32.920387 -29.992364 0.0
 32.054061 -28.491844 0.0
 33.786713 -28.491844 0.0
 32.920387 -28.992017 0.0
 31.187735 -28.992017 0.0
 32.054061 -30.492538 0.0
 30.321409 -30.492538 0.0
 31.187735 -29.992364 0.0
 38.118342 -32.993406 0.0
 37.252017 -31.492885 0.0
 38.984668 -31.492885 0.0
 38.118342 -31.993059 0.0
 36.385691 -29.992364 0.0
 35.519365 -28.491844 0.0
 37.252017 -28.491844 0.0
 36.385691 -28.992017 0.0
 39.850992 -29.992364 0.0
 38.984668 -28.491844 0.0
 40.717313 -28.491843 0.0
 39.850991 -28.992017 0.0
 38.118343 -28.992017 0.0
 38.984668 -30.492538 0.0
 37.252017 -30.492538 0.0
 38.118342 -29.992364 0.0
 34.653039 -28.992017 0.0
 35.519365 -30.492538 0.0
 33.786713 -30.492538 0.0
 34.653039 -29.992364 0.0
 36.385691 -31.993059 0.0
 37.252017 -33.493579 0.0
 35.519365 -33.493579 0.0
 36.385691 -32.993406 0.0
 32.920387 -31.993059 0.0
 33.786713 -33.493579 0.0
 32.054061 -33.493579 0.0
 32.920387 -32.993406 0.0
 34.653039 -32.993406 0.0
 33.786713 -31.492885 0.0
 35.519365 -31.492885 0.0
 34.653039 -31.993059 0.0
 27.722431 -28.992017 0.0
 28.588757 -30.492538 0.0
 26.856105 -30.492538 0.0
 27.722431 -29.992364 0.0
 29.455083 -31.993059 0.0
 30.321409 -33.493579 0.0
 28.588757 -33.493579 0.0
 29.455083 -32.993406 0.0
 25.989779 -31.993059 0.0
 26.856105 -33.493579 0.0
 25.123453 -33.493579 0.0
 25.989779 -32.993406 0.0
 27.722431 -32.993406 0.0
 26.856105 -31.492885 0.0
 28.588757 -31.492885 0.0
 27.722431 -31.993059 0.0
 31.187735 -34.9941 0.0
 32.054061 -36.49462 0.0
 30.321409 -36.49462 0.0
 31.187735 -35.994447 0.0
 32.920387 -37.99514 0.0
 33.786714 -39.495653 0.0
 32.054061 -39.495654 0.0
 32.920387 -38.99548 0.0
 29.455083 -37.99514 0.0
 30.321406 -39.495655 0.0
 28.588754 -39.495655 0.0
 29.45508 -38.995482 0.0
 31.187735 -38.995486 0.0
 30.321409 -37.494967 0.0
 32.054061 -37.494967 0.0
 31.187735 -37.99514 0.0
 24.257127 -34.9941 0.0
 25.123453 -36.49462 0.0
 23.390801 -36.49462 0.0
 24.257127 -35.994447 0.0
 25.989779 -37.995139 0.0
 26.856106 -39.495653 0.0
 25.123455 -39.495653 0.0
 25.989781 -38.995479 0.0
 22.524476 -37.995139 0.0
 23.390805 -39.495654 0.0
 21.658153 -39.495653 0.0
 22.524479 -38.99548 0.0
 24.257128 -38.995486 0.0
 23.390802 -37.494967 0.0
 25.123453 -37.494967 0.0
 24.257128 -37.995139 0.0
 27.72243 -38.995485 0.0
 26.856105 -37.494966 0.0
 28.588757 -37.494967 0.0
 27.722431 -37.995139 0.0
 25.989779 -35.994447 0.0
 25.123453 -34.493926 0.0
 26.856105 -34.493926 0.0
 25.989779 -34.9941 0.0
 29.455083 -35.994447 0.0
 28.588757 -34.493926 0.0
 30.321409 -34.493926 0.0
 29.455083 -34.9941 0.0
 27.722431 -34.9941 0.0
 28.588757 -36.49462 0.0
 26.856105 -36.49462 0.0
 27.722431 -35.994447 0.0
 49.650238 -41.103073 0.0
 49.17484 -42.101775 0.0
 49.649333 -38.895714 0.0
 49.102699 -40.435467 0.0
 48.296965 -39.068022 0.0
 47.646963 -37.504298 0.0
 49.173947 -37.895177 0.0
 48.369118 -38.068424 0.0
 46.757776 -35.985975 0.0
 45.901232 -34.493124 0.0
 47.563617 -34.486735 0.0
 46.747088 -34.985563 0.0
 49.648659 -35.102502 0.0
 49.173273 -36.101965 0.0
 49.649694 -32.895143 0.0
 49.101229 -34.434333 0.0
 48.295787 -34.924726 0.0
 47.64635 -36.488111 0.0
 48.367831 -35.925691 0.0
 45.045014 -32.994284 0.0
 44.181936 -31.492977 0.0
 45.912302 -31.49386 0.0
 45.045543 -31.993931 0.0
 43.315922 -29.992287 0.0
 42.449806 -28.491837 0.0
 44.181215 -28.491801 0.0
 43.315807 -28.991945 0.0
 46.758446 -29.984226 0.0
 45.901189 -28.491104 0.0
 47.564059 -28.485044 0.0
 46.747561 -28.983682 0.0
 45.045229 -28.99124 0.0
 45.912594 -30.492002 0.0
 44.181851 -30.492498 0.0
 45.04575 -29.991594 0.0
 49.649345 -29.102155 0.0
 49.174109 -30.100124 0.0
 49.650218 -26.894775 0.0
 49.101815 -28.433512 0.0
 48.296898 -28.923337 0.0
 47.647237 -30.485533 0.0
 48.369191 -29.923282 0.0
 49.524764 -30.997968 0.0
 49.102264 -33.560307 0.0
 46.75555 -32.002821 0.0
 47.561539 -33.502904 0.0
 45.900872 -33.494317 0.0
 46.744649 -33.002925 0.0
 48.294743 -33.066868 0.0
 47.644634 -31.50227 0.0
 49.174458 -31.893111 0.0
 48.366937 -32.066339 0.0
 49.524614 -36.999462 0.0
 49.101794 -39.561441 0.0
 41.583615 -26.991328 0.0
 40.717312 -25.490803 0.0
 42.449921 -25.490807 0.0
 41.583613 -25.99098 0.0
 39.850991 -23.990281 0.0
 38.984668 -22.489761 0.0
 40.717312 -22.489761 0.0
 39.850991 -22.989934 0.0
 43.315979 -23.990206 0.0
 42.449793 -22.489752 0.0
 44.181164 -22.489674 0.0
 43.315845 -22.989855 0.0
 41.583617 -22.989928 0.0
 42.449925 -24.49045 0.0
 40.717311 -24.490455 0.0
 41.583615 -23.990275 0.0
 38.118343 -20.989241 0.0
 37.252017 -19.48872 0.0
 38.984668 -19.48872 0.0
 38.118343 -19.988894 0.0
 36.385691 -17.9882 0.0
 35.519365 -16.487679 0.0
 37.252017 -16.487679 0.0
 36.385691 -16.987853 0.0
 39.850992 -17.988199 0.0
 38.984668 -16.487679 0.0
 40.717314 -16.487678 0.0
 39.850992 -16.987852 0.0
 38.118343 -16.987853 0.0
 38.984668 -18.488373 0.0
 37.252017 -18.488373 0.0
 38.118343 -17.9882 0.0
 45.04537 -20.990089 0.0
 44.181928 -19.488828 0.0
 45.912772 -19.489841 0.0
 45.04602 -19.989803 0.0
 43.315924 -17.98813 0.0
 42.44981 -16.487673 0.0
 44.181229 -16.487653 0.0
 43.315814 -16.987788 0.0
 46.758312 -17.980457 0.0
 45.900976 -16.487196 0.0
 47.563649 -16.481805 0.0
 46.747286 -16.980003 0.0
 45.045214 -16.987144 0.0
 45.912556 -18.488013 0.0
 44.181893 -18.488359 0.0
 45.045768 -17.987506 0.0
 41.58362 -16.987846 0.0
 42.449918 -18.488361 0.0
 40.717313 -18.488372 0.0
 41.583618 -17.988192 0.0
 43.315932 -19.988959 0.0
 44.181153 -21.489461 0.0
 42.449766 -21.489416 0.0
 43.315806 -20.989306 0.0
 39.850988 -19.988894 0.0
 40.717309 -21.489415 0.0
 38.984668 -21.489414 0.0
 39.850988 -20.989241 0.0
 41.583587 -20.989247 0.0
 40.717309 -19.48872 0.0
 42.44989 -19.48872 0.0
 41.583586 -19.988899 0.0
 34.653039 -14.987158 0.0
 33.786713 -13.486638 0.0
 35.519365 -13.486638 0.0
 34.653039 -13.986811 0.0
 32.920387 -11.986117 0.0
 32.054061 -10.485597 0.0
 33.786713 -10.485597 0.0
 32.920387 -10.98577 0.0
 36.385691 -11.986117 0.0
 35.519365 -10.485597 0.0
 37.252017 -10.485597 0.0
 36.385691 -10.98577 0.0
 34.653039 -10.98577 0.0
 35.519365 -12.486291 0.0
 33.786713 -12.486291 0.0
 34.653039 -11.986117 0.0
 31.187735 -8.985076 0.0
 30.321409 -7.484555 0.0
 32.054061 -7.484555 0.0
 31.187735 -7.984729 0.0
 29.455083 -5.984035 0.0
 28.588757 -4.483514 0.0
 30.321409 -4.483514 0.0
 29.455083 -4.983688 0.0
 32.920387 -5.984035 0.0
 32.054061 -4.483514 0.0
 33.786713 -4.483514 0.0
 32.920387 -4.983688 0.0
 31.187735 -4.983688 0.0
 32.054061 -6.484208 0.0
 30.321409 -6.484208 0.0
 31.187735 -5.984035 0.0
 38.118343 -8.985076 0.0
 37.252017 -7.484555 0.0
 38.984669 -7.484555 0.0
 38.118343 -7.984729 0.0
 36.385691 -5.984035 0.0
 35.519365 -4.483514 0.0
 37.252017 -4.483514 0.0
 36.385691 -4.983688 0.0
 39.850992 -5.984034 0.0
 38.984667 -4.483514 0.0
 40.717312 -4.483513 0.0
 39.850991 -4.983687 0.0
 38.118343 -4.983688 0.0
 38.984668 -6.484208 0.0
 37.252017 -6.484208 0.0
 38.118343 -5.984035 0.0
 34.653039 -4.983688 0.0
 35.519365 -6.484208 0.0
 33.786713 -6.484208 0.0
 34.653039 -5.984035 0.0
 36.385691 -7.984729 0.0
 37.252017 -9.48525 0.0
 35.519365 -9.48525 0.0
 36.385691 -8.985076 0.0
 32.920387 -7.984729 0.0
 33.786713 -9.48525 0.0
 32.054061 -9.48525 0.0
 32.920387 -8.985076 0.0
 34.653039 -8.985076 0.0
 33.786713 -7.484555 0.0
 35.519365 -7.484555 0.0
 34.653039 -7.984729 0.0
 48.296103 -15.06236 0.0
 47.646324 -13.497753 0.0
 49.173777 -13.892116 0.0
 48.368344 -14.063039 0.0
 46.757806 -11.978378 0.0
 45.901237 -10.485095 0.0
 47.563613 -10.47988 0.0
 46.747088 -10.977957 0.0
 49.648651 -11.101119 0.0
 49.1732 -12.098925 0.0
 49.649684 -8.893737 0.0
 49.10122 -10.430999 0.0
 48.295774 -10.919062 0.0
 47.646311 -12.481559 0.0
 48.367754 -11.920321 0.0
 45.04502 -8.986068 0.0
 44.181959 -7.484694 0.0
 45.912348 -7.485855 0.0
 45.045567 -7.985729 0.0
 43.3159 -5.983966 0.0
 42.449753 -4.483516 0.0
 44.181101 -4.483456 0.0
 43.315747 -4.98363 0.0
 46.757104 -5.976643 0.0
 45.899899 -4.483478 0.0
 47.562666 -4.478587 0.0
 46.745612 -4.976534 0.0
 45.044513 -4.98298 0.0
 45.911998 -6.484008 0.0
 44.181862 -6.484212 0.0
 45.04512 -5.9834 0.0
 49.649236 -5.100745 0.0
 49.173923 -6.097055 0.0
 49.650178 -2.893345 0.0
 49.101623 -4.43011 0.0
 48.295979 -4.917607 0.0
 47.646457 -6.478975 0.0
 48.368279 -5.917885 0.0
 49.524687 -6.99631 0.0
 49.102253 -9.556951 0.0
 46.755572 -7.995257 0.0
 47.561532 -9.49608 0.0
 45.900876 -9.486295 0.0
 46.744647 -8.995358 0.0
 48.294726 -9.061214 0.0
 47.644575 -7.495742 0.0
 49.174371 -7.890047 0.0
 48.366844 -8.060977 0.0
 41.583603 -4.983681 0.0
 42.449905 -6.484198 0.0
 40.717312 -6.484207 0.0
 41.583601 -5.984028 0.0
 43.316004 -7.984808 0.0
 44.181308 -9.485397 0.0
 42.449814 -9.48527 0.0
 43.3159 -8.985172 0.0
 39.850991 -7.98473 0.0
 40.717314 -9.48525 0.0
 38.984668 -9.48525 0.0
 39.85099 -8.985077 0.0
 41.583612 -8.985084 0.0
 40.71731 -7.484555 0.0
 42.449913 -7.484558 0.0
 41.583607 -7.984736 0.0
 45.045278 -10.985075 0.0
 45.912586 -12.485794 0.0
 44.181966 -12.486221 0.0
 45.045909 -11.985354 0.0
 46.756538 -13.99665 0.0
 47.563187 -15.497387 0.0
 45.899792 -15.488575 0.0
 46.745641 -14.996963 0.0
 43.315709 -13.986944 0.0
 44.181031 -15.487481 0.0
 42.449764 -15.487344 0.0
 43.315569 -14.987287 0.0
 45.043833 -14.98835 0.0
 44.181787 -13.486749 0.0
 45.911305 -13.487873 0.0
 45.044449 -13.987961 0.0
 38.118343 -10.98577 0.0
 38.984669 -12.486291 0.0
 37.252017 -12.486291 0.0
 38.118343 -11.986117 0.0
 39.850986 -13.986813 0.0
 40.717309 -15.487333 0.0
 38.984667 -15.487332 0.0
 39.850986 -14.98716 0.0
 36.385691 -13.986811 0.0
 37.252017 -15.487332 0.0
 35.519365 -15.487332 0.0
 36.385691 -14.987158 0.0
 38.118342 -14.987159 0.0
 37.252017 -13.486638 0.0
 38.984668 -13.486638 0.0
 38.118342 -13.986812 0.0
 41.583568 -14.987172 0.0
 40.717306 -13.486641 0.0
 42.449899 -13.486656 0.0
 41.583564 -13.986827 0.0
 39.850993 -11.986117 0.0
 38.984668 -10.485597 0.0
 40.717317 -10.485597 0.0
 39.850993 -10.98577 0.0
 43.315907 -11.986052 0.0
 42.449794 -10.485605 0.0
 44.181205 -10.485604 0.0
 43.315777 -10.985714 0.0
 41.583594 -10.985765 0.0
 42.449918 -12.486292 0.0
 40.717312 -12.486293 0.0
 41.583589 -11.986114 0.0
 49.524549 -12.997806 0.0
 49.101537 -15.558104 0.0
 48.296648 -16.920602 0.0
 47.647095 -18.482273 0.0
 48.369069 -17.920616 0.0
 49.52473 -18.997142 0.0
 49.102151 -21.558567 0.0
 46.756535 -19.999002 0.0
 47.561549 -21.499812 0.0
 45.900804 -21.490621 0.0
 46.745216 -20.999496 0.0
 48.295185 -21.063959 0.0
 47.645101 -19.498991 0.0
 49.174384 -19.891574 0.0
 48.367418 -20.063632 0.0
 49.524474 -24.998676 0.0
 49.102688 -27.559465 0.0
 45.044619 -22.989111 0.0
 45.912035 -24.489714 0.0
 44.181935 -24.49036 0.0
 45.045256 -23.989446 0.0
 46.755088 -26.000925 0.0
 47.562119 -27.501134 0.0
 45.899787 -27.492552 0.0
 46.744218 -27.001219 0.0
 43.31569 -25.991098 0.0
 44.18098 -27.491637 0.0
 42.449801 -27.4915 0.0
 43.315567 -26.991444 0.0
 45.043592 -26.992523 0.0
 44.18165 -25.490895 0.0
 45.911204 -25.491861 0.0
 45.04414 -25.992127 0.0
 48.295831 -27.065379 0.0
 47.644993 -25.501492 0.0
 49.174692 -25.893451 0.0
 48.367835 -26.066032 0.0
 46.756619 -23.982091 0.0
 45.900041 -22.48943 0.0
 47.562357 -22.483647 0.0
 46.745262 -22.982141 0.0
 49.648532 -23.101812 0.0
 49.173006 -24.100488 0.0
 49.649654 -20.894432 0.0
 49.101028 -22.432613 0.0
 48.29487 -22.92184 0.0
 47.645692 -24.484805 0.0
 48.366848 -23.923048 0.0
 49.64931 -17.101467 0.0
 49.17404 -18.098608 0.0
 49.649227 -14.89431 0.0
 49.10162 -16.431928 0.0
 -49.650238 33.108771 0.0
 -49.174837 34.114169 0.0
 -48.296965 31.09081 0.0
 -47.646963 29.530598 0.0
 -49.173947 29.907439 0.0
 -48.369118 30.090083 0.0
 -46.757776 28.016374 0.0
 -45.901232 26.525243 0.0
 -47.563617 26.514158 0.0
 -46.747088 27.015992 0.0
 -49.648659 27.10804 0.0
 -49.173273 28.114136 0.0
 -48.295787 26.947388 0.0
 -47.64635 28.514338 0.0
 -48.367831 27.947186 0.0
 -45.045014 25.027143 0.0
 -44.181936 23.526096 0.0
 -45.912302 23.525861 0.0
 -45.045543 24.026728 0.0
 -43.315922 22.025543 0.0
 -42.449806 20.525135 0.0
 -44.181215 20.524965 0.0
 -43.315807 21.025195 0.0
 -46.758446 22.014664 0.0
 -45.901189 20.523197 0.0
 -47.564059 20.512482 0.0
 -46.747561 21.014139 0.0
 -45.045229 21.024096 0.0
 -45.912594 22.524012 0.0
 -44.181851 22.525602 0.0
 -45.04575 22.024385 0.0
 -49.649345 21.107782 0.0
 -49.174109 22.112388 0.0
 -48.296898 20.946107 0.0
 -47.647237 22.511826 0.0
 -48.369191 21.944926 0.0
 -49.524764 23.004606 0.0
 -49.101229 26.447672 0.0
 -49.649694 24.900766 0.0
 -49.102264 25.573731 0.0
 -46.75555 24.033064 0.0
 -47.561539 25.530197 0.0
 -45.900872 25.526403 0.0
 -46.744649 25.033192 0.0
 -48.294743 25.089486 0.0
 -47.644634 23.528377 0.0
 -49.174458 23.905372 0.0
 -48.366937 24.087794 0.0
 -49.524614 29.006096 0.0
 -49.102699 32.448928 0.0
 -49.649333 30.901343 0.0
 -49.101794 31.574833 0.0
 -41.583615 19.024641 0.0
 -40.717312 17.52412 0.0
 -42.449921 17.524111 0.0
 -41.583613 18.024293 0.0
 -39.850991 16.0236 0.0
 -38.984668 14.52308 0.0
 -40.717312 14.523078 0.0
 -39.850991 15.023252 0.0
 -43.315979 16.023476 0.0
 -42.449793 14.52305 0.0
 -44.181164 14.522844 0.0
 -43.315845 15.023118 0.0
 -41.583617 15.023242 0.0
 -42.449925 16.523754 0.0
 -40.717311 16.523771 0.0
 -41.583615 16.023588 0.0
 -38.118343 13.022559 0.0
 -37.252017 11.522039 0.0
 -38.984668 11.522039 0.0
 -38.118343 12.022212 0.0
 -36.385691 10.021518 0.0
 -35.519365 8.520998 0.0
 -37.252017 8.520998 0.0
 -36.385691 9.021171 0.0
 -39.850992 10.021517 0.0
 -38.984668 8.520997 0.0
 -40.717314 8.520996 0.0
 -39.850992 9.02117 0.0
 -38.118343 9.021171 0.0
 -38.984668 10.521692 0.0
 -37.252017 10.521692 0.0
 -38.118343 10.021518 0.0
 -45.04537 13.022975 0.0
 -44.181928 11.521946 0.0
 -45.912772 11.521875 0.0
 -45.04602 12.022633 0.0
 -43.315924 10.021387 0.0
 -42.44981 8.520971 0.0
 -44.181229 8.520817 0.0
 -43.315814 9.021038 0.0
 -46.758312 10.010888 0.0
 -45.900976 8.519279 0.0
 -47.563649 8.509226 0.0
 -46.747286 9.010447 0.0
 -45.045214 9.019998 0.0
 -45.912556 10.520021 0.0
 -44.181893 10.521467 0.0
 -45.045768 10.0203 0.0
 -41.58362 9.02116 0.0
 -42.449918 10.521665 0.0
 -40.717313 10.521688 0.0
 -41.583618 10.021505 0.0
 -43.315932 12.022222 0.0
 -44.181153 13.522629 0.0
 -42.449766 13.522711 0.0
 -43.315806 13.022564 0.0
 -39.850988 12.022212 0.0
 -40.717309 13.522732 0.0
 -38.984668 13.522733 0.0
 -39.850988 13.022559 0.0
 -41.583587 13.022557 0.0
 -40.717309 11.522036 0.0
 -42.44989 11.52202 0.0
 -41.583586 12.022208 0.0
 -34.653039 7.020477 0.0
 -33.786713 5.519956 0.0
 -35.519365 5.519956 0.0
 -34.653039 6.02013 0.0
 -32.920387 4.019436 0.0
 -32.054061 2.518915 0.0
 -33.786713 2.518915 0.0
 -32.920387 3.019089 0.0
 -36.385691 4.019436 0.0
 -35.519365 2.518915 0.0
 -37.252017 2.518915 0.0
 -36.385691 3.019089 0.0
 -34.653039 3.019089 0.0
 -35.519365 4.519609 0.0
 -33.786713 4.519609 0.0
 -34.653039 4.019436 0.0
 -31.187735 1.018395 0.0
 -30.321409 -0.482126 0.0
 -32.054061 -0.482126 0.0
 -31.187735 0.018048 0.0
 -29.455083 -1.982647 0.0
 -28.588757 -3.483167 0.0
 -30.321409 -3.483167 0.0
 -29.455083 -2.982994 0.0
 -32.920387 -1.982647 0.0
 -32.054061 -3.483167 0.0
 -33.786713 -3.483167 0.0
 -32.920387 -2.982994 0.0
 -31.187735 -2.982994 0.0
 -32.054061 -1.482473 0.0
 -30.321409 -1.482473 0.0
 -31.187735 -1.982647 0.0
 -38.118343 1.018395 0.0
 -37.252017 -0.482126 0.0
 -38.984669 -0.482126 0.0
 -38.118343 0.018048 0.0
 -36.385691 -1.982647 0.0
 -35.519365 -3.483167 0.0
 -37.252017 -3.483167 0.0
 -36.385691 -2.982994 0.0
 -39.850992 -1.982647 0.0
 -38.984668 -3.483167 0.0
 -40.717314 -3.483168 0.0
 -39.850992 -2.982995 0.0
 -38.118343 -2.982994 0.0
 -38.984668 -1.482473 0.0
 -37.252017 -1.482473 0.0
 -38.118343 -1.982647 0.0
 -34.653039 -2.982994 0.0
 -35.519365 -1.482473 0.0
 -33.786713 -1.482473 0.0
 -34.653039 -1.982647 0.0
 -36.385691 0.018048 0.0
 -37.252017 1.518568 0.0
 -35.519365 1.518568 0.0
 -36.385691 1.018395 0.0
 -32.920387 0.018048 0.0
 -33.786713 1.518568 0.0
 -32.054061 1.518568 0.0
 -32.920387 1.018395 0.0
 -34.653039 1.018395 0.0
 -33.786713 -0.482126 0.0
 -35.519365 -0.482126 0.0
 -34.653039 0.018048 0.0
 -48.296103 7.085097 0.0
 -47.646324 5.524011 0.0
 -49.173777 5.904368 0.0
 -48.368344 6.084648 0.0
 -46.757806 4.00878 0.0
 -45.901237 2.517214 0.0
 -47.563613 2.507303 0.0
 -46.747088 3.008386 0.0
 -49.648651 3.106655 0.0
 -49.1732 4.111092 0.0
 -48.295774 2.941723 0.0
 -47.646311 4.507785 0.0
 -48.367754 3.941811 0.0
 -45.045014 1.018928 0.0
 -44.181936 -0.482184 0.0
 -45.912302 -0.482139 0.0
 -45.045543 0.018529 0.0
 -43.315922 -1.982771 0.0
 -42.449805 -3.48319 0.0
 -44.181215 -3.483326 0.0
 -43.315807 -2.983118 0.0
 -46.758446 -1.992946 0.0
 -45.901189 -3.484826 0.0
 -47.564059 -3.494378 0.0
 -46.74756 -2.993475 0.0
 -45.045229 -2.984118 0.0
 -45.912594 -1.48399 0.0
 -44.181851 -1.482674 0.0
 -45.04575 -1.983813 0.0
 -49.649345 -2.893624 0.0
 -49.174109 -1.890678 0.0
 -48.296898 -3.059586 0.0
 -47.647237 -1.494747 0.0
 -48.369191 -2.060485 0.0
 -49.524764 -0.997054 0.0
 -49.10122 2.444337 0.0
 -49.649694 0.89936 0.0
 -49.102263 1.570375 0.0
 -46.75555 0.025504 0.0
 -47.561539 1.523374 0.0
 -45.900873 1.518382 0.0
 -46.744649 1.025625 0.0
 -48.294743 1.083832 0.0
 -47.644634 -0.47815 0.0
 -49.174458 -0.097694 0.0
 -48.366937 0.08243 0.0
 -41.583619 -2.983004 0.0
 -42.449919 -1.482498 0.0
 -40.717313 -1.482476 0.0
 -41.583618 -1.982659 0.0
 -43.315999 0.018078 0.0
 -44.181306 1.518574 0.0
 -42.449813 1.518569 0.0
 -43.315898 1.018436 0.0
 -39.850991 0.018047 0.0
 -40.717315 1.518568 0.0
 -38.984668 1.518568 0.0
 -39.85099 1.018395 0.0
 -41.583612 1.018397 0.0
 -40.717311 -0.482128 0.0
 -42.449911 -0.482139 0.0
 -41.583608 0.018048 0.0
 -45.045277 3.017954 0.0
 -45.912586 4.517834 0.0
 -44.181966 4.519339 0.0
 -45.045909 4.01818 0.0
 -46.756538 6.026978 0.0
 -47.563187 7.524787 0.0
 -45.899792 7.520575 0.0
 -46.745641 7.027304 0.0
 -43.315709 6.020175 0.0
 -44.181031 7.520623 0.0
 -42.449764 7.520637 0.0
 -43.315569 7.02051 0.0
 -45.043833 7.0211 0.0
 -44.181787 5.519845 0.0
 -45.911305 5.519805 0.0
 -45.044449 6.020656 0.0
 -38.118343 3.019089 0.0
 -38.984669 4.519609 0.0
 -37.252017 4.519609 0.0
 -38.118343 4.019436 0.0
 -39.850986 6.02013 0.0
 -40.717309 7.52065 0.0
 -38.984667 7.52065 0.0
 -39.850986 7.020477 0.0
 -36.385691 6.02013 0.0
 -37.252017 7.520651 0.0
 -35.519365 7.520651 0.0
 -36.385691 7.020477 0.0
 -38.118342 7.020477 0.0
 -37.252017 5.519956 0.0
 -38.984668 5.519956 0.0
 -38.118342 6.02013 0.0
 -41.583568 7.020479 0.0
 -40.717306 5.519957 0.0
 -42.449899 5.519956 0.0
 -41.583564 6.020133 0.0
 -39.850993 4.019436 0.0
 -38.984668 2.518915 0.0
 -40.717317 2.518915 0.0
 -39.850993 3.019089 0.0
 -43.315907 4.019308 0.0
 -42.449794 2.518901 0.0
 -44.181204 2.518768 0.0
 -43.315777 3.018962 0.0
 -41.583594 3.019076 0.0
 -42.449918 4.519594 0.0
 -40.717312 4.519609 0.0
 -41.583589 4.019423 0.0
 -49.524549 5.004436 0.0
 -49.10162 8.445312 0.0
 -49.649227 6.899932 0.0
 -49.101537 7.571485 0.0
 -48.296648 8.943363 0.0
 -47.647095 10.508558 0.0
 -48.369069 9.942254 0.0
 -49.52473 11.003777 0.0
 -49.101028 14.445941 0.0
 -49.649654 12.900053 0.0
 -49.102151 13.571986 0.0
 -46.756535 12.029316 0.0
 -47.561549 13.527121 0.0
 -45.900804 13.522716 0.0
 -46.745216 13.029816 0.0
 -48.295185 13.086611 0.0
 -47.645101 11.525132 0.0
 -49.174384 11.90383 0.0
 -48.367418 12.085122 0.0
 -49.524474 17.005306 0.0
 -49.101815 20.446902 0.0
 -49.650218 18.900466 0.0
 -49.102688 19.57292 0.0
 -45.044619 15.021955 0.0
 -45.912035 16.521719 0.0
 -44.181935 16.523486 0.0
 -45.045256 16.022238 0.0
 -46.755088 18.031187 0.0
 -47.562119 19.528481 0.0
 -45.899787 19.524553 0.0
 -46.744218 19.031494 0.0
 -43.31569 18.024331 0.0
 -44.18098 19.524777 0.0
 -42.449801 19.524798 0.0
 -43.315567 19.02467 0.0
 -45.043592 19.025264 0.0
 -44.18165 17.523984 0.0
 -45.911204 17.523793 0.0
 -45.04414 18.02481 0.0
 -48.295831 19.088123 0.0
 -47.644993 17.527694 0.0
 -49.174692 17.905773 0.0
 -48.367835 18.087643 0.0
 -46.756619 16.012415 0.0
 -45.900041 14.521481 0.0
 -47.562357 14.510999 0.0
 -46.745262 15.01246 0.0
 -49.648532 15.107342 0.0
 -49.173006 16.112648 0.0
 -48.29487 14.944445 0.0
 -47.645692 16.510995 0.0
 -48.366848 15.944486 0.0
 -49.64931 9.107092 0.0
 -49.17404 10.110869 0.0
 -27.722431 -4.983688 0.0
 -26.856105 -6.484208 0.0
 -28.588757 -6.484208 0.0
 -27.722431 -5.984035 0.0
 -25.989779 -7.984729 0.0
 -25.123453 -9.48525 0.0
 -26.856105 -9.48525 0.0
 -25.989779 -8.985076 0.0
 -29.455083 -7.984729 0.0
 -28.588757 -9.48525 0.0
 -30.321409 -9.48525 0.0
 -29.455083 -8.985076 0.0
 -27.722431 -8.985076 0.0
 -28.588757 -7.484555 0.0
 -26.856105 -7.484555 0.0
 -27.722431 -7.984729 0.0
 -24.257127 -10.98577 0.0
 -23.390801 -12.486291 0.0
 -25.123453 -12.486291 0.0
 -24.257127 -11.986117 0.0
 -22.524475 -13.986811 0.0
 -21.658149 -15.487332 0.0
 -23.390801 -15.487332 0.0
 -22.524475 -14.987158 0.0
 -25.989779 -13.986811 0.0
 -25.123453 -15.487332 0.0
 -26.856105 -15.487332 0.0
 -25.989779 -14.987158 0.0
 -24.257127 -14.987158 0.0
 -25.123453 -13.486638 0.0
 -23.390801 -13.486638 0.0
 -24.257127 -13.986811 0.0
 -31.187735 -10.98577 0.0
 -30.321409 -12.486291 0.0
 -32.054061 -12.486291 0.0
 -31.187735 -11.986117 0.0
 -29.455083 -13.986811 0.0
 -28.588757 -15.487332 0.0
 -30.321409 -15.487332 0.0
 -29.455083 -14.987158 0.0
 -32.920387 -13.986811 0.0
 -32.054061 -15.487332 0.0
 -33.786713 -15.487332 0.0
 -32.920387 -14.987158 0.0
 -31.187735 -14.987158 0.0
 -32.054061 -13.486638 0.0
 -30.321409 -13.486638 0.0
 -31.187735 -13.986811 0.0
 -27.722431 -14.987158 0.0
 -28.588757 -13.486638 0.0
 -26.856105 -13.486638 0.0
 -27.722431 -13.986811 0.0
 -29.455083 -11.986117 0.0
 -30.321409 -10.485597 0.0
 -28.588757 -10.485597 0.0
 -29.455083 -10.98577 0.0
 -25.989779 -11.986117 0.0
 -26.856105 -10.485597 0.0
 -25.123453 -10.485597 0.0
 -25.989779 -10.98577 0.0
 -27.722431 -10.98577 0.0
 -26.856105 -12.486291 0.0
 -28.588757 -12.486291 0.0
 -27.722431 -11.986117 0.0
 -20.791823 -16.987853 0.0
 -19.925497 -18.488373 0.0
 -21.658149 -18.488373 0.0
 -20.791823 -17.9882 0.0
 -19.059171 -19.988894 0.0
 -18.192845 -21.489414 0.0
 -19.925497 -21.489414 0.0
 -19.059171 -20.989241 0.0
 -22.524475 -19.988894 0.0
 -21.658149 -21.489414 0.0
 -23.390801 -21.489414 0.0
 -22.524475 -20.989241 0.0
 -20.791823 -20.989241 0.0
 -21.658149 -19.48872 0.0
 -19.925497 -19.48872 0.0
 -20.791823 -19.988894 0.0
 -17.326519 -22.989935 0.0
 -16.460194 -24.490456 0.0
 -18.192845 -24.490456 0.0
 -17.326519 -23.990282 0.0
 -15.593868 -25.990976 0.0
 -14.727542 -27.491497 0.0
 -16.460194 -27.491497 0.0
 -15.593868 -26.991323 0.0
 -19.059171 -25.990976 0.0
 -18.192845 -27.491497 0.0
 -19.925497 -27.491497 0.0
 -19.059171 -26.991323 0.0
 -17.326519 -26.991323 0.0
 -18.192845 -25.490803 0.0
 -16.460194 -25.490803 0.0
 -17.326519 -25.990976 0.0
 -24.257127 -22.989935 0.0
 -23.390801 -24.490456 0.0
 -25.123453 -24.490456 0.0
 -24.257127 -23.990282 0.0
 -22.524475 -25.990976 0.0
 -21.658149 -27.491497 0.0
 -23.390801 -27.491497 0.0
 -22.524475 -26.991323 0.0
 -25.989779 -25.990976 0.0
 -25.123453 -27.491497 0.0
 -26.856105 -27.491497 0.0
 -25.989779 -26.991323 0.0
 -24.257127 -26.991323 0.0
 -25.123453 -25.490803 0.0
 -23.390801 -25.490803 0.0
 -24.257127 -25.990976 0.0
 -20.791823 -26.991323 0.0
 -21.658149 -25.490803 0.0
 -19.925497 -25.490803 0.0
 -20.791823 -25.990976 0.0
 -22.524475 -23.990282 0.0
 -23.390801 -22.489761 0.0
 -21.658149 -22.489761 0.0
 -22.524475 -22.989935 0.0
 -19.059171 -23.990282 0.0
 -19.925497 -22.489761 0.0
 -18.192845 -22.489761 0.0
 -19.059171 -22.989935 0.0
 -20.791823 -22.989935 0.0
 -19.925497 -24.490456 0.0
 -21.658149 -24.490456 0.0
 -20.791823 -23.990282 0.0
 -34.653039 -16.987853 0.0
 -33.786713 -18.488373 0.0
 -35.519365 -18.488373 0.0
 -34.653039 -17.9882 0.0
 -32.920387 -19.988894 0.0
 -32.054061 -21.489414 0.0
 -33.786713 -21.489414 0.0
 -32.920387 -20.989241 0.0
 -36.385691 -19.988894 0.0
 -35.519365 -21.489414 0.0
 -37.252017 -21.489414 0.0
 -36.385691 -20.989241 0.0
 -34.653039 -20.989241 0.0
 -35.519365 -19.48872 0.0
 -33.786713 -19.48872 0.0
 -34.653039 -19.988894 0.0
 -31.187735 -22.989935 0.0
 -30.321409 -24.490456 0.0
 -32.054061 -24.490456 0.0
 -31.187735 -23.990282 0.0
 -29.455083 -25.990976 0.0
 -28.588757 -27.491497 0.0
 -30.321409 -27.491497 0.0
 -29.455083 -26.991323 0.0
 -32.920387 -25.990976 0.0
 -32.054061 -27.491497 0.0
 -33.786713 -27.491497 0.0
 -32.920387 -26.991323 0.0
 -31.187735 -26.991323 0.0
 -32.054061 -25.490803 0.0
 -30.321409 -25.490803 0.0
 -31.187735 -25.990976 0.0
 -38.118343 -22.989935 0.0
 -37.252017 -24.490456 0.0
 -38.984669 -24.490456 0.0
 -38.118343 -23.990282 0.0
 -36.385691 -25.990976 0.0
 -35.519365 -27.491497 0.0
 -37.252017 -27.491497 0.0
 -36.385691 -26.991323 0.0
 -39.850992 -25.990977 0.0
 -38.984668 -27.491497 0.0
 -40.717312 -27.491499 0.0
 -39.850992 -26.991324 0.0
 -38.118343 -26.991323 0.0
 -38.984668 -25.490803 0.0
 -37.252017 -25.490803 0.0
 -38.118343 -25.990976 0.0
 -34.653039 -26.991323 0.0
 -35.519365 -25.490803 0.0
 -33.786713 -25.490803 0.0
 -34.653039 -25.990976 0.0
 -36.385691 -23.990282 0.0
 -37.252017 -22.489761 0.0
 -35.519365 -22.489761 0.0
 -36.385691 -22.989935 0.0
 -32.920387 -23.990282 0.0
 -33.786713 -22.489761 0.0
 -32.054061 -22.489761 0.0
 -32.920387 -22.989935 0.0
 -34.653039 -22.989935 0.0
 -33.786713 -24.490456 0.0
 -35.519365 -24.490456 0.0
 -34.653039 -23.990282 0.0
 -27.722431 -26.991323 0.0
 -28.588757 -25.490803 0.0
 -26.856105 -25.490803 0.0
 -27.722431 -25.990976 0.0
 -29.455083 -23.990282 0.0
 -30.321409 -22.489761 0.0
 -28.588757 -22.489761 0.0
 -29.455083 -22.989935 0.0
 -25.989779 -23.990282 0.0
 -26.856105 -22.489761 0.0
 -25.123453 -22.489761 0.0
 -25.989779 -22.989935 0.0
 -27.722431 -22.989935 0.0
 -26.856105 -24.490456 0.0
 -28.588757 -24.490456 0.0
 -27.722431 -23.990282 0.0
 -31.187735 -20.989241 0.0
 -32.054061 -19.48872 0.0
 -30.321409 -19.48872 0.0
 -31.187735 -19.988894 0.0
 -32.920387 -17.9882 0.0
 -33.786713 -16.487679 0.0
 -32.054061 -16.487679 0.0
 -32.920387 -16.987853 0.0
 -29.455083 -17.9882 0.0
 -30.321409 -16.487679 0.0
 -28.588757 -16.487679 0.0
 -29.455083 -16.987853 0.0
 -31.187735 -16.987853 0.0
 -30.321409 -18.488373 0.0
 -32.054061 -18.488373 0.0
 -31.187735 -17.9882 0.0
 -24.257127 -20.989241 0.0
 -25.123453 -19.48872 0.0
 -23.390801 -19.48872 0.0
 -24.257127 -19.988894 0.0
 -25.989779 -17.9882 0.0
 -26.856105 -16.487679 0.0
 -25.123453 -16.487679 0.0
 -25.989779 -16.987853 0.0
 -22.524475 -17.9882 0.0
 -23.390801 -16.487679 0.0
 -21.658149 -16.487679 0.0
 -22.524475 -16.987853 0.0
 -24.257127 -16.987853 0.0
 -23.390801 -18.488373 0.0
 -25.123453 -18.488373 0.0
 -24.257127 -17.9882 0.0
 -27.722431 -16.987853 0.0
 -26.856105 -18.488373 0.0
 -28.588757 -18.488373 0.0
 -27.722431 -17.9882 0.0
 -25.989779 -19.988894 0.0
 -25.123453 -21.489414 0.0
 -26.856105 -21.489414 0.0
 -25.989779 -20.989241 0.0
 -29.455083 -19.988894 0.0
 -28.588757 -21.489414 0.0
 -30.321409 -21.489414 0.0
 -29.455083 -20.989241 0.0
 -27.722431 -20.989241 0.0
 -28.588757 -19.48872 0.0
 -26.856105 -19.48872 0.0
 -27.722431 -19.988894 0.0
 -13.861216 -28.992017 0.0
 -12.99489 -30.492538 0.0
 -14.727542 -30.492538 0.0
 -13.861216 -29.992364 0.0
 -12.128564 -31.993059 0.0
 -11.262238 -33.493579 0.0
 -12.99489 -33.493579 0.0
 -12.128564 -32.993406 0.0
 -15.593868 -31.993059 0.0
 -14.727542 -33.493579 0.0
 -16.460194 -33.493579 0.0
 -15.593868 -32.993406 0.0
 -13.861216 -32.993406 0.0
 -14.727542 -31.492885 0.0
 -12.99489 -31.492885 0.0
 -13.861216 -31.993059 0.0
 -10.395912 -34.9941 0.0
 -9.529586 -36.49462 0.0
 -11.262238 -36.49462 0.0
 -10.395912 -35.994447 0.0
 -8.66326 -37.995141 0.0
 -7.796935 -39.495659 0.0
 -9.529587 -39.49566 0.0
 -8.66326 -38.995487 0.0
 -12.128564 -37.995141 0.0
 -11.262239 -39.49566 0.0
 -12.99489 -39.495659 0.0
 -12.128564 -38.995487 0.0
 -10.395912 -38.995487 0.0
 -11.262238 -37.494967 0.0
 -9.529586 -37.494967 0.0
 -10.395912 -37.995141 0.0
 -17.326519 -34.9941 0.0
 -16.460194 -36.49462 0.0
 -18.192845 -36.49462 0.0
 -17.326519 -35.994447 0.0
 -15.593868 -37.995141 0.0
 -14.727542 -39.495659 0.0
 -16.460193 -39.49566 0.0
 -15.593868 -38.995487 0.0
 -19.059172 -37.995141 0.0
 -18.192845 -39.49566 0.0
 -19.925498 -39.495659 0.0
 -19.059172 -38.995486 0.0
 -17.326519 -38.995487 0.0
 -18.192845 -37.494967 0.0
 -16.460193 -37.494967 0.0
 -17.326519 -37.995141 0.0
 -13.861216 -38.995486 0.0
 -14.727542 -37.494967 0.0
 -12.99489 -37.494967 0.0
 -13.861216 -37.995141 0.0
 -15.593868 -35.994447 0.0
 -16.460194 -34.493926 0.0
 -14.727542 -34.493926 0.0
 -15.593868 -34.9941 0.0
 -12.128564 -35.994447 0.0
 -12.99489 -34.493926 0.0
 -11.262238 -34.493926 0.0
 -12.128564 -34.9941 0.0
 -13.861216 -34.9941 0.0
 -12.99489 -36.49462 0.0
 -14.727542 -36.49462 0.0
 -13.861216 -35.994447 0.0
 -6.930613 -40.996146 0.0
 -6.064266 -42.496493 0.0
 -7.797018 -42.496493 0.0
 -6.930631 -41.996393 0.0
 -5.197277 -43.995325 0.0
 -4.325797 -45.487661 0.0
 -6.062976 -45.48812 0.0
 -5.195538 -44.991173 0.0
 -8.664436 -43.995244 0.0
 -7.800925 -45.487992 0.0
 -9.53821 -45.487444 0.0
 -8.667479 -44.990976 0.0
 -6.931391 -44.991614 0.0
 -7.797329 -43.495935 0.0
 -6.064162 -43.495946 0.0
 -6.930837 -43.995289 0.0
 -3.425476 -46.946455 0.0
 -2.423234 -48.314325 0.0
 -4.221285 -48.327006 0.0
 -3.361509 -47.874468 0.0
 -1.157751 -49.583063 0.0
 -2.245364 -49.172451 0.0
 -5.037646 -49.594413 0.0
 -4.125259 -49.183801 0.0
 -10.448842 -46.946467 0.0
 -3.087613 -49.589388 0.0
 -9.686214 -48.327608 0.0
 -11.484386 -48.31379 0.0
 -10.5324 -47.874516 0.0
 -10.886918 -49.589394 0.0
 -11.702085 -49.172574 0.0
 -9.823033 -49.183702 0.0
 -8.936115 -49.594308 0.0
 -7.923214 -49.186948 0.0
 -6.987099 -49.59264 0.0
 -6.024745 -49.187053 0.0
 -8.741618 -47.880453 0.0
 -9.557397 -46.466517 0.0
 -7.810618 -46.465354 0.0
 -8.696358 -46.947411 0.0
 -5.152137 -47.878729 0.0
 -6.060121 -46.464344 0.0
 -4.311821 -46.465963 0.0
 -5.178706 -46.945699 0.0
 -6.938228 -46.9452 0.0
 -6.04321 -48.328164 0.0
 -7.865536 -48.329187 0.0
 -6.947886 -47.87599 0.0
 -20.791837 -40.996144 0.0
 -19.925533 -42.496489 0.0
 -21.658269 -42.496482 0.0
 -20.791876 -41.996389 0.0
 -19.058995 -43.995319 0.0
 -18.189685 -45.487656 0.0
 -19.926788 -45.488084 0.0
 -19.058486 -44.991164 0.0
 -22.525803 -43.995054 0.0
 -21.664139 -45.48761 0.0
 -23.398787 -45.485748 0.0
 -22.529524 -44.990464 0.0
 -20.794158 -44.991556 0.0
 -21.658786 -43.495899 0.0
 -19.925666 -43.495938 0.0
 -20.792527 -43.995255 0.0
 -17.299975 -46.946454 0.0
 -16.33036 -48.314325 0.0
 -18.129511 -48.327001 0.0
 -17.255643 -47.874466 0.0
 -15.130725 -49.583063 0.0
 -16.192894 -49.17245 0.0
 -19.011335 -49.594409 0.0
 -18.073504 -49.183797 0.0
 -17.062169 -49.589388 0.0
 -24.295727 -46.932274 0.0
 -23.569553 -48.313251 0.0
 -25.2271 -48.221495 0.0
 -24.382056 -47.850413 0.0
 -20.96111 -49.592517 0.0
 -24.842169 -49.578274 0.0
 -26.486058 -49.093326 0.0
 -25.506516 -49.091123 0.0
 -23.75025 -49.171483 0.0
 -22.908082 -49.59321 0.0
 -21.869192 -49.185727 0.0
 -19.972445 -49.186927 0.0
 -22.629414 -47.876825 0.0
 -23.420425 -46.462839 0.0
 -21.679591 -46.464608 0.0
 -22.566615 -46.944553 0.0
 -19.046389 -47.878668 0.0
 -19.930534 -46.464256 0.0
 -18.181716 -46.465958 0.0
 -19.054262 -46.945637 0.0
 -20.813356 -46.944726 0.0
 -19.951492 -48.327981 0.0
 -21.771222 -48.327575 0.0
 -20.842187 -47.87542 0.0
 -12.815167 -49.583179 0.0
 -15.503226 -47.853634 0.0
 -13.451135 -49.093163 0.0
 -14.433359 -49.093047 0.0
 -16.439 -46.460959 0.0
 -14.718079 -46.446124 0.0
 -15.567534 -46.92828 0.0
 -12.281027 -47.851436 0.0
 -13.02049 -46.444192 0.0
 -11.301246 -46.459995 0.0
 -12.181445 -46.92569 0.0
 -13.873273 -46.915455 0.0
 -13.134695 -48.220203 0.0
 -14.668394 -48.221743 0.0
 -13.887896 -47.76572 0.0
 -17.323263 -44.990564 0.0
 -18.192434 -43.495794 0.0
 -16.459458 -43.495191 0.0
 -17.325503 -43.994547 0.0
 -19.059156 -41.996381 0.0
 -19.9255 -40.495989 0.0
 -18.192835 -40.495968 0.0
 -19.059163 -40.996125 0.0
 -15.593827 -41.996391 0.0
 -16.46018 -40.495967 0.0
 -14.727539 -40.495987 0.0
 -15.593851 -40.996122 0.0
 -17.326495 -40.996103 0.0
 -16.460057 -42.496316 0.0
 -18.192729 -42.496304 0.0
 -17.326396 -41.996183 0.0
 -10.402703 -44.990422 0.0
 -11.263787 -43.495134 0.0
 -9.530671 -43.495714 0.0
 -10.398206 -43.994424 0.0
 -12.128653 -41.996392 0.0
 -12.994897 -40.49599 0.0
 -11.262268 -40.495968 0.0
 -12.1286 -40.996126 0.0
 -8.66336 -41.996376 0.0
 -9.52962 -40.495963 0.0
 -7.796942 -40.495988 0.0
 -8.663301 -40.996119 0.0
 -10.395975 -40.996099 0.0
 -9.529905 -42.496289 0.0
 -11.262548 -42.496303 0.0
 -10.396201 -41.996168 0.0
 -13.86122 -40.996145 0.0
 -12.994965 -42.496511 0.0
 -14.727531 -42.496512 0.0
 -13.861235 -41.996401 0.0
 -12.130775 -43.993796 0.0
 -11.274294 -45.483023 0.0
 -13.002782 -45.481161 0.0
 -12.136785 -44.985686 0.0
 -15.593035 -43.993726 0.0
 -14.725362 -45.481321 0.0
 -16.454319 -45.483371 0.0
 -15.590136 -44.985889 0.0
 -13.862849 -44.98762 0.0
 -14.727338 -43.494972 0.0
 -12.995848 -43.495085 0.0
 -13.861925 -43.993434 0.0
 -41.583626 -28.992017 0.0
 -40.717313 -30.492539 0.0
 -42.449934 -30.492542 0.0
 -41.583626 -29.992364 0.0
 -39.850991 -31.99306 0.0
 -38.984668 -33.493579 0.0
 -40.717312 -33.493581 0.0
 -39.850991 -32.993407 0.0
 -43.315975 -31.99316 0.0
 -42.449792 -33.4936 0.0
 -44.181161 -33.493741 0.0
 -43.315842 -32.993514 0.0
 -41.583617 -32.993415 0.0
 -42.449925 -31.492898 0.0
 -40.717312 -31.492887 0.0
 -41.583617 -31.993068 0.0
 -38.118343 -34.9941 0.0
 -37.252017 -36.49462 0.0
 -38.984668 -36.49462 0.0
 -38.118343 -35.994447 0.0
 -36.385691 -37.995141 0.0
 -35.519367 -39.495659 0.0
 -37.252018 -39.495659 0.0
 -36.385692 -38.995486 0.0
 -39.850992 -37.995141 0.0
 -38.984668 -39.49566 0.0
 -40.717314 -39.49566 0.0
 -39.850992 -38.995487 0.0
 -38.118343 -38.995487 0.0
 -38.984668 -37.494967 0.0
 -37.252017 -37.494967 0.0
 -38.118343 -37.995141 0.0
 -45.045369 -34.993468 0.0
 -44.181928 -36.494613 0.0
 -45.912772 -36.494142 0.0
 -45.04602 -35.993782 0.0
 -43.315924 -37.995241 0.0
 -42.44981 -39.495676 0.0
 -44.181229 -39.495763 0.0
 -43.315814 -38.995586 0.0
 -46.758312 -38.004327 0.0
 -45.900976 -39.496761 0.0
 -47.563649 -39.504482 0.0
 -46.747286 -39.004774 0.0
 -45.045214 -38.996428 0.0
 -45.912556 -37.495983 0.0
 -44.181893 -37.495087 0.0
 -45.045768 -37.996097 0.0
 -41.58362 -38.995495 0.0
 -42.449918 -37.494987 0.0
 -40.717313 -37.49497 0.0
 -41.583618 -37.995151 0.0
 -43.315932 -35.99441 0.0
 -44.181152 -34.493955 0.0
 -42.449765 -34.493937 0.0
 -43.315806 -34.994065 0.0
 -39.850988 -35.994447 0.0
 -40.717309 -34.493927 0.0
 -38.984668 -34.493926 0.0
 -39.850988 -34.9941 0.0
 -41.583587 -34.994098 0.0
 -40.717309 -36.494622 0.0
 -42.44989 -36.49463 0.0
 -41.583586 -35.994447 0.0
 -34.653062 -40.996144 0.0
 -33.786803 -42.496491 0.0
 -35.519541 -42.496482 0.0
 -34.653128 -41.99639 0.0
 -32.920662 -43.995357 0.0
 -32.053089 -45.487968 0.0
 -33.790588 -45.488129 0.0
 -32.921331 -44.99124 0.0
 -36.387538 -43.995055 0.0
 -35.528011 -45.487613 0.0
 -37.26261 -45.485749 0.0
 -36.392499 -44.990465 0.0
 -34.657009 -44.991563 0.0
 -35.520305 -43.4959 0.0
 -33.787176 -43.495944 0.0
 -34.654265 -43.99526 0.0
 -31.169966 -46.949262 0.0
 -30.215984 -48.328102 0.0
 -32.034908 -48.328849 0.0
 -31.143424 -47.878481 0.0
 -29.088035 -49.593157 0.0
 -30.122535 -49.183992 0.0
 -32.019435 -49.185312 0.0
 -31.034501 -49.590834 0.0
 -38.169313 -46.932274 0.0
 -37.476711 -48.313251 0.0
 -39.128736 -48.221495 0.0
 -38.274652 -47.850413 0.0
 -34.935297 -49.592524 0.0
 -39.449073 -49.091122 0.0
 -40.428187 -49.093319 0.0
 -38.816017 -49.578274 0.0
 -37.697739 -49.171483 0.0
 -36.881722 -49.59321 0.0
 -35.817018 -49.185734 0.0
 -33.920231 -49.187002 0.0
 -32.984934 -49.594478 0.0
 -36.52306 -47.876827 0.0
 -37.289936 -46.462839 0.0
 -35.549809 -46.464611 0.0
 -36.441624 -46.944555 0.0
 -32.940056 -47.879116 0.0
 -33.800952 -46.464343 0.0
 -32.050663 -46.46657 0.0
 -32.929268 -46.946055 0.0
 -34.689172 -46.944774 0.0
 -33.859879 -48.328103 0.0
 -35.679384 -48.327583 0.0
 -34.73731 -47.875474 0.0
 -48.296104 -40.926249 0.0
 -47.646329 -42.488945 0.0
 -49.173779 -42.101694 0.0
 -48.368347 -41.926078 0.0
 -46.7578 -44.004334 0.0
 -45.900854 -45.48786 0.0
 -47.564049 -45.495205 0.0
 -46.747358 -44.999382 0.0
 -49.64867 -44.895386 0.0
 -49.173221 -43.894208 0.0
 -48.29595 -45.063136 0.0
 -47.646352 -43.504148 0.0
 -48.367812 -44.067128 0.0
 -45.038017 -46.946244 0.0
 -44.122107 -48.326505 0.0
 -45.928991 -48.316431 0.0
 -45.030998 -47.874396 0.0
 -43.061623 -49.593092 0.0
 -45.007734 -49.589551 0.0
 -45.958477 -49.175448 0.0
 -44.069357 -49.182643 0.0
 -48.859603 -49.539556 0.0
 -47.810346 -49.125452 0.0
 -46.950743 -49.585897 0.0
 -49.52627 -48.872889 0.0
 -49.101359 -45.556883 0.0
 -49.649792 -47.079925 0.0
 -49.102482 -46.408088 0.0
 -46.783613 -47.851132 0.0
 -47.565148 -46.446536 0.0
 -45.902036 -46.46317 0.0
 -46.749639 -46.926023 0.0
 -48.298171 -46.865673 0.0
 -47.672702 -48.249704 0.0
 -49.176062 -47.952814 0.0
 -48.371751 -47.743732 0.0
 -43.247959 -47.876679 0.0
 -41.128464 -49.58047 0.0
 -42.190087 -49.173562 0.0
 -44.169677 -46.464601 0.0
 -42.428264 -46.459686 0.0
 -43.288509 -46.942927 0.0
 -39.878343 -47.770306 0.0
 -40.709983 -46.443818 0.0
 -39.008862 -46.446617 0.0
 -39.863808 -46.913569 0.0
 -41.558381 -46.927431 0.0
 -40.660478 -48.220404 0.0
 -42.323673 -48.313287 0.0
 -41.494341 -47.84728 0.0
 -45.044188 -44.991631 0.0
 -45.912491 -43.496866 0.0
 -44.181456 -43.495572 0.0
 -45.045382 -43.995686 0.0
 -46.756536 -41.988033 0.0
 -47.563187 -40.488896 0.0
 -45.899787 -40.495385 0.0
 -46.745636 -40.987813 0.0
 -43.315667 -41.99632 0.0
 -44.181022 -40.495909 0.0
 -42.449758 -40.49599 0.0
 -43.315555 -40.996046 0.0
 -45.043818 -40.995199 0.0
 -44.181697 -42.496346 0.0
 -45.91125 -42.495768 0.0
 -45.044382 -41.995362 0.0
 -38.124626 -44.98876 0.0
 -38.985615 -43.49478 0.0
 -37.253273 -43.495502 0.0
 -38.120251 -43.993924 0.0
 -39.851019 -41.996373 0.0
 -40.717308 -40.495989 0.0
 -38.984688 -40.495962 0.0
 -39.851006 -40.996118 0.0
 -36.385832 -41.996362 0.0
 -37.25205 -40.495957 0.0
 -35.519382 -40.495987 0.0
 -36.385739 -40.996112 0.0
 -38.118395 -40.996086 0.0
 -37.252332 -42.496226 0.0
 -38.984889 -42.496237 0.0
 -38.118584 -41.996106 0.0
 -41.583562 -40.996139 0.0
 -40.717299 -42.496503 0.0
 -42.449848 -42.496523 0.0
 -41.58354 -41.996397 0.0
 -39.851759 -43.993415 0.0
 -38.991502 -45.480195 0.0
 -40.716805 -45.480665 0.0
 -39.85327 -44.983993 0.0
 -43.314843 -43.994308 0.0
 -42.444013 -45.48415 0.0
 -44.177029 -45.485298 0.0
 -43.31161 -44.988088 0.0
 -41.580952 -44.988742 0.0
 -42.449265 -43.495285 0.0
 -40.717313 -43.495001 0.0
 -41.582971 -43.993658 0.0
 -28.243078 -49.173634 0.0
 -29.355027 -47.877025 0.0
 -27.155044 -49.580477 0.0
 -30.30145 -46.465115 0.0
 -28.55828 -46.459768 0.0
 -29.41395 -46.943257 0.0
 -25.990897 -47.77031 0.0
 -26.840349 -46.443822 0.0
 -25.139696 -46.446618 0.0
 -25.989821 -46.913573 0.0
 -27.683954 -46.927468 0.0
 -26.758689 -48.220415 0.0
 -28.416621 -48.313392 0.0
 -27.601218 -47.847324 0.0
 -31.185362 -44.991057 0.0
 -32.053866 -43.495855 0.0
 -30.320558 -43.495453 0.0
 -31.186808 -43.994828 0.0
 -32.920403 -41.996385 0.0
 -33.786721 -40.495985 0.0
 -32.054054 -40.495967 0.0
 -32.920387 -40.996124 0.0
 -29.455016 -41.996412 0.0
 -30.321392 -40.495968 0.0
 -28.588746 -40.495986 0.0
 -29.455057 -40.996125 0.0
 -31.187713 -40.996111 0.0
 -30.32126 -42.496363 0.0
 -32.053979 -42.496337 0.0
 -31.187623 -41.996219 0.0
 -24.261757 -44.98876 0.0
 -25.124013 -43.49478 0.0
 -23.391729 -43.495502 0.0
 -24.25842 -43.993924 0.0
 -25.989786 -41.996374 0.0
 -26.856102 -40.495984 0.0
 -25.123467 -40.495957 0.0
 -25.989789 -40.996114 0.0
 -22.524578 -41.996362 0.0
 -23.390827 -40.495951 0.0
 -21.658164 -40.495981 0.0
 -22.524511 -40.996106 0.0
 -24.257162 -40.996087 0.0
 -23.391021 -42.496227 0.0
 -25.123591 -42.496237 0.0
 -24.25729 -41.996106 0.0
 -27.722419 -40.996147 0.0
 -26.856065 -42.496505 0.0
 -28.58867 -42.496533 0.0
 -27.722385 -41.996407 0.0
 -25.989911 -43.993415 0.0
 -25.127364 -45.480195 0.0
 -26.852785 -45.480665 0.0
 -25.989925 -44.983994 0.0
 -29.453374 -43.994255 0.0
 -28.58004 -45.484198 0.0
 -30.31442 -45.485511 0.0
 -29.448681 -44.988084 0.0
 -27.718151 -44.988742 0.0
 -28.58773 -43.495286 0.0
 -26.855768 -43.495002 0.0
 -27.721148 -43.993658 0.0
 -34.65304 -38.995486 0.0
 -35.519365 -37.494967 0.0
 -33.786713 -37.494967 0.0
 -34.653039 -37.99514 0.0
 -36.385691 -35.994447 0.0
 -37.252017 -34.493926 0.0
 -35.519365 -34.493926 0.0
 -36.385691 -34.9941 0.0
 -32.920387 -35.994447 0.0
 -33.786713 -34.493926 0.0
 -32.054061 -34.493926 0.0
 -32.920387 -34.9941 0.0
 -34.653039 -34.9941 0.0
 -33.786713 -36.49462 0.0
 -35.519365 -36.49462 0.0
 -34.653039 -35.994447 0.0
 -38.118343 -32.993406 0.0
 -38.984668 -31.492885 0.0
 -37.252017 -31.492885 0.0
 -38.118343 -31.993059 0.0
 -39.850992 -29.992365 0.0
 -40.717313 -28.491845 0.0
 -38.984668 -28.491844 0.0
 -39.850992 -28.992018 0.0
 -36.385691 -29.992364 0.0
 -37.252017 -28.491844 0.0
 -35.519365 -28.491844 0.0
 -36.385691 -28.992017 0.0
 -38.118342 -28.992017 0.0
 -37.252017 -30.492538 0.0
 -38.984668 -30.492538 0.0
 -38.118342 -29.992365 0.0
 -31.187735 -32.993406 0.0
 -32.054061 -31.492885 0.0
 -30.321409 -31.492885 0.0
 -31.187735 -31.993059 0.0
 -32.920387 -29.992364 0.0
 -33.786713 -28.491844 0.0
 -32.054061 -28.491844 0.0
 -32.920387 -28.992017 0.0
 -29.455083 -29.992364 0.0
 -30.321409 -28.491844 0.0
 -28.588757 -28.491844 0.0
 -29.455083 -28.992017 0.0
 -31.187735 -28.992017 0.0
 -30.321409 -30.492538 0.0
 -32.054061 -30.492538 0.0
 -31.187735 -29.992364 0.0
 -34.653039 -28.992017 0.0
 -33.786713 -30.492538 0.0
 -35.519365 -30.492538 0.0
 -34.653039 -29.992364 0.0
 -32.920387 -31.993059 0.0
 -32.054061 -33.493579 0.0
 -33.786713 -33.493579 0.0
 -32.920387 -32.993406 0.0
 -36.385691 -31.993059 0.0
 -35.519365 -33.493579 0.0
 -37.252017 -33.493579 0.0
 -36.385691 -32.993406 0.0
 -34.653039 -32.993406 0.0
 -35.519365 -31.492885 0.0
 -33.786713 -31.492885 0.0
 -34.653039 -31.993059 0.0
 -20.791824 -38.995485 0.0
 -21.65815 -37.494966 0.0
 -19.925498 -37.494967 0.0
 -20.791824 -37.99514 0.0
 -22.524475 -35.994447 0.0
 -23.390801 -34.493926 0.0
 -21.658149 -34.493926 0.0
 -22.524475 -34.9941 0.0
 -19.059171 -35.994447 0.0
 -19.925497 -34.493926 0.0
 -18.192845 -34.493926 0.0
 -19.059171 -34.9941 0.0
 -20.791823 -34.9941 0.0
 -19.925497 -36.49462 0.0
 -21.658149 -36.49462 0.0
 -20.791823 -35.994447 0.0
 -24.257127 -32.993406 0.0
 -25.123453 -31.492885 0.0
 -23.390801 -31.492885 0.0
 -24.257127 -31.993059 0.0
 -25.989779 -29.992364 0.0
 -26.856105 -28.491844 0.0
 -25.123453 -28.491844 0.0
 -25.989779 -28.992017 0.0
 -22.524475 -29.992364 0.0
 -23.390801 -28.491844 0.0
 -21.658149 -28.491844 0.0
 -22.524475 -28.992017 0.0
 -24.257127 -28.992017 0.0
 -23.390801 -30.492538 0.0
 -25.123453 -30.492538 0.0
 -24.257127 -29.992364 0.0
 -17.326519 -32.993406 0.0
 -18.192845 -31.492885 0.0
 -16.460194 -31.492885 0.0
 -17.326519 -31.993059 0.0
 -19.059171 -29.992364 0.0
 -19.925497 -28.491844 0.0
 -18.192845 -28.491844 0.0
 -19.059171 -28.992017 0.0
 -15.593868 -29.992364 0.0
 -16.460194 -28.491844 0.0
 -14.727542 -28.491844 0.0
 -15.593868 -28.992017 0.0
 -17.326519 -28.992017 0.0
 -16.460194 -30.492538 0.0
 -18.192845 -30.492538 0.0
 -17.326519 -29.992364 0.0
 -20.791823 -28.992017 0.0
 -19.925497 -30.492538 0.0
 -21.658149 -30.492538 0.0
 -20.791823 -29.992364 0.0
 -19.059171 -31.993059 0.0
 -18.192845 -33.493579 0.0
 -19.925497 -33.493579 0.0
 -19.059171 -32.993406 0.0
 -22.524475 -31.993059 0.0
 -21.658149 -33.493579 0.0
 -23.390801 -33.493579 0.0
 -22.524475 -32.993406 0.0
 -20.791823 -32.993406 0.0
 -21.658149 -31.492885 0.0
 -19.925497 -31.492885 0.0
 -20.791823 -31.993059 0.0
 -27.722431 -28.992017 0.0
 -26.856105 -30.492538 0.0
 -28.588757 -30.492538 0.0
 -27.722431 -29.992364 0.0
 -25.989779 -31.993059 0.0
 -25.123453 -33.493579 0.0
 -26.856105 -33.493579 0.0
 -25.989779 -32.993406 0.0
 -29.455083 -31.993059 0.0
 -28.588757 -33.493579 0.0
 -30.321409 -33.493579 0.0
 -29.455083 -32.993406 0.0
 -27.722431 -32.993406 0.0
 -28.588757 -31.492885 0.0
 -26.856105 -31.492885 0.0
 -27.722431 -31.993059 0.0
 -24.257127 -34.9941 0.0
 -23.390801 -36.49462 0.0
 -25.123453 -36.49462 0.0
 -24.257127 -35.994447 0.0
 -22.524476 -37.995139 0.0
 -21.658154 -39.495652 0.0
 -23.390805 -39.495653 0.0
 -22.52448 -38.995479 0.0
 -25.989779 -37.995139 0.0
 -25.123455 -39.495654 0.0
 -26.856106 -39.495653 0.0
 -25.98978 -38.99548 0.0
 -24.257128 -38.995486 0.0
 -25.123453 -37.494967 0.0
 -23.390802 -37.494967 0.0
 -24.257128 -37.995139 0.0
 -31.187735 -34.9941 0.0
 -30.321409 -36.49462 0.0
 -32.054061 -36.49462 0.0
 -31.187735 -35.994447 0.0
 -29.455083 -37.99514 0.0
 -28.588754 -39.495654 0.0
 -30.321406 -39.495655 0.0
 -29.45508 -38.995481 0.0
 -32.920387 -37.99514 0.0
 -32.054061 -39.495655 0.0
 -33.786714 -39.495654 0.0
 -32.920387 -38.995481 0.0
 -31.187735 -38.995486 0.0
 -32.054061 -37.494967 0.0
 -30.321409 -37.494967 0.0
 -31.187735 -37.99514 0.0
 -27.722431 -38.995485 0.0
 -28.588757 -37.494967 0.0
 -26.856105 -37.494966 0.0
 -27.722431 -37.995139 0.0
 -29.455083 -35.994447 0.0
 -30.321409 -34.493926 0.0
 -28.588757 -34.493926 0.0
 -29.455083 -34.9941 0.0
 -25.989779 -35.994447 0.0
 -26.856105 -34.493926 0.0
 -25.123453 -34.493926 0.0
 -25.989779 -34.9941 0.0
 -27.722431 -34.9941 0.0
 -26.856105 -36.49462 0.0
 -28.588757 -36.49462 0.0
 -27.722431 -35.994447 0.0
 -49.524552 -42.998821 0.0
 -49.10162 -39.561379 0.0
 -49.649228 -41.102872 0.0
 -49.101537 -40.435198 0.0
 -48.296648 -39.068016 0.0
 -47.647095 -37.504584 0.0
 -48.369069 -38.068565 0.0
 -49.52473 -36.999541 0.0
 -49.101033 -33.560723 0.0
 -49.649654 -35.102757 0.0
 -49.102151 -34.434724 0.0
 -46.756535 -35.985841 0.0
 -47.561549 -34.486534 0.0
 -45.900803 -34.493332 0.0
 -46.745216 -34.985344 0.0
 -48.295185 -34.924715 0.0
 -47.645101 -36.487939 0.0
 -49.174384 -36.102298 0.0
 -48.367418 -35.925623 0.0
 -49.524511 -30.998009 0.0
 -49.101623 -27.559856 0.0
 -49.650178 -29.102388 0.0
 -49.102565 -28.43387 0.0
 -45.044609 -32.994468 0.0
 -45.911952 -31.494288 0.0
 -44.181905 -31.49308 0.0
 -45.045219 -31.994161 0.0
 -46.756061 -29.983937 0.0
 -47.561925 -28.484828 0.0
 -45.899685 -28.491081 0.0
 -46.744658 -28.983219 0.0
 -43.315764 -29.992291 0.0
 -44.180943 -28.491851 0.0
 -42.44978 -28.491851 0.0
 -43.315611 -28.991947 0.0
 -45.044136 -28.991159 0.0
 -44.181685 -30.492567 0.0
 -45.911678 -30.492172 0.0
 -45.044725 -29.991532 0.0
 -48.29618 -28.923307 0.0
 -47.645453 -30.485407 0.0
 -49.174689 -30.100397 0.0
 -48.368304 -29.923168 0.0
 -46.756561 -32.002751 0.0
 -45.900034 -33.494545 0.0
 -47.562356 -33.502677 0.0
 -46.745253 -33.002701 0.0
 -49.648536 -32.895423 0.0
 -49.173048 -31.893433 0.0
 -48.294873 -33.066858 0.0
 -47.645678 -31.502104 0.0
 -48.366888 -32.066234 0.0
 -49.64931 -38.89572 0.0
 -49.17404 -37.895261 0.0
 -41.583603 -26.991335 0.0
 -42.449906 -25.490825 0.0
 -40.717312 -25.490806 0.0
 -41.583602 -25.990989 0.0
 -43.316004 -23.99024 0.0
 -44.181308 -22.48972 0.0
 -42.449814 -22.489756 0.0
 -43.3159 -22.98988 0.0
 -39.850991 -23.990282 0.0
 -40.717314 -22.489762 0.0
 -38.984668 -22.489761 0.0
 -39.85099 -22.989935 0.0
 -41.583612 -22.989931 0.0
 -40.71731 -24.490458 0.0
 -42.449913 -24.490465 0.0
 -41.583607 -23.99028 0.0
 -45.045272 -20.990267 0.0
 -45.912537 -19.490184 0.0
 -44.18195 -19.488944 0.0
 -45.045888 -19.99003 0.0
 -46.75778 -17.980601 0.0
 -47.564098 -16.481696 0.0
 -45.900692 -16.487096 0.0
 -46.747069 -16.979908 0.0
 -43.315824 -17.988136 0.0
 -44.181189 -16.487699 0.0
 -42.449776 -16.487681 0.0
 -43.315673 -16.987794 0.0
 -45.044668 -16.987128 0.0
 -44.181864 -18.488436 0.0
 -45.911928 -18.488183 0.0
 -45.045193 -17.987522 0.0
 -38.118343 -20.989241 0.0
 -38.984669 -19.48872 0.0
 -37.252017 -19.48872 0.0
 -38.118343 -19.988894 0.0
 -39.850989 -17.988199 0.0
 -40.717311 -16.48768 0.0
 -38.984667 -16.487679 0.0
 -39.850988 -16.987852 0.0
 -36.385691 -17.9882 0.0
 -37.252017 -16.487679 0.0
 -35.519365 -16.487679 0.0
 -36.385691 -16.987853 0.0
 -38.118342 -16.987853 0.0
 -37.252017 -18.488373 0.0
 -38.984668 -18.488373 0.0
 -38.118342 -17.9882 0.0
 -41.583592 -16.987847 0.0
 -40.71731 -18.488372 0.0
 -42.449925 -18.488369 0.0
 -41.583591 -17.988193 0.0
 -39.850994 -19.988894 0.0
 -38.984668 -21.489414 0.0
 -40.717317 -21.489415 0.0
 -39.850993 -20.989241 0.0
 -43.315907 -19.989007 0.0
 -42.449794 -21.489423 0.0
 -44.181203 -21.489524 0.0
 -43.315776 -20.98935 0.0
 -41.583595 -20.989252 0.0
 -42.449922 -19.488732 0.0
 -40.717314 -19.48872 0.0
 -41.583592 -19.988904 0.0
 -48.295883 -15.062577 0.0
 -47.645385 -13.498432 0.0
 -48.368022 -14.063438 0.0
 -49.524599 -12.997918 0.0
 -49.101002 -9.557385 0.0
 -49.649615 -11.101355 0.0
 -49.102089 -10.431367 0.0
 -46.755893 -11.977904 0.0
 -47.561508 -10.479674 0.0
 -45.899746 -10.485016 0.0
 -46.744204 -10.977476 0.0
 -48.29521 -10.919055 0.0
 -47.645322 -12.481341 0.0
 -49.174214 -12.099273 0.0
 -48.367335 -11.920295 0.0
 -49.524474 -6.996351 0.0
 -49.101815 -3.556445 0.0
 -49.650218 -5.100956 0.0
 -49.102688 -4.430444 0.0
 -45.044542 -8.986265 0.0
 -45.912038 -7.486271 0.0
 -44.181802 -7.48481 0.0
 -45.045126 -7.985968 0.0
 -46.755085 -5.976378 0.0
 -47.562118 -4.478356 0.0
 -45.899785 -4.483447 0.0
 -46.744217 -4.976075 0.0
 -43.315656 -5.983966 0.0
 -44.180982 -4.483507 0.0
 -42.449753 -4.483522 0.0
 -43.315521 -4.983631 0.0
 -45.043593 -4.982921 0.0
 -44.181653 -6.484282 0.0
 -45.91119 -6.48419 0.0
 -45.044129 -5.98336 0.0
 -48.295831 -4.917563 0.0
 -47.644991 -6.478856 0.0
 -49.174692 -6.097307 0.0
 -48.367834 -5.917759 0.0
 -46.75662 -7.995149 0.0
 -45.899992 -9.486489 0.0
 -47.562217 -9.495796 0.0
 -46.745158 -8.99507 0.0
 -49.648527 -8.894039 0.0
 -49.173001 -7.89039 0.0
 -48.294832 -9.061194 0.0
 -47.645678 -7.495547 0.0
 -48.366831 -8.060867 0.0
 -34.653039 -14.987158 0.0
 -35.519365 -13.486638 0.0
 -33.786713 -13.486638 0.0
 -34.653039 -13.986811 0.0
 -36.385691 -11.986117 0.0
 -37.252017 -10.485597 0.0
 -35.519365 -10.485597 0.0
 -36.385691 -10.98577 0.0
 -32.920387 -11.986117 0.0
 -33.786713 -10.485597 0.0
 -32.054061 -10.485597 0.0
 -32.920387 -10.98577 0.0
 -34.653039 -10.98577 0.0
 -33.786713 -12.486291 0.0
 -35.519365 -12.486291 0.0
 -34.653039 -11.986117 0.0
 -38.118343 -8.985076 0.0
 -38.984668 -7.484555 0.0
 -37.252017 -7.484555 0.0
 -38.118343 -7.984729 0.0
 -39.850986 -5.984034 0.0
 -40.717308 -4.483514 0.0
 -38.984667 -4.483514 0.0
 -39.850985 -4.983687 0.0
 -36.385691 -5.984035 0.0
 -37.252017 -4.483514 0.0
 -35.519365 -4.483514 0.0
 -36.385691 -4.983688 0.0
 -38.118342 -4.983688 0.0
 -37.252017 -6.484208 0.0
 -38.984668 -6.484208 0.0
 -38.118342 -5.984035 0.0
 -31.187735 -8.985076 0.0
 -32.054061 -7.484555 0.0
 -30.321409 -7.484555 0.0
 -31.187735 -7.984729 0.0
 -32.920387 -5.984035 0.0
 -33.786713 -4.483514 0.0
 -32.054061 -4.483514 0.0
 -32.920387 -4.983688 0.0
 -29.455083 -5.984035 0.0
 -30.321409 -4.483514 0.0
 -28.588757 -4.483514 0.0
 -29.455083 -4.983688 0.0
 -31.187735 -4.983688 0.0
 -30.321409 -6.484208 0.0
 -32.054061 -6.484208 0.0
 -31.187735 -5.984035 0.0
 -34.653039 -4.983688 0.0
 -33.786713 -6.484208 0.0
 -35.519365 -6.484208 0.0
 -34.653039 -5.984035 0.0
 -32.920387 -7.984729 0.0
 -32.054061 -9.48525 0.0
 -33.786713 -9.48525 0.0
 -32.920387 -8.985076 0.0
 -36.385691 -7.984729 0.0
 -35.519365 -9.48525 0.0
 -37.252017 -9.48525 0.0
 -36.385691 -8.985076 0.0
 -34.653039 -8.985076 0.0
 -35.519365 -7.484555 0.0
 -33.786713 -7.484555 0.0
 -34.653039 -7.984729 0.0
 -41.583561 -4.983682 0.0
 -40.717303 -6.484207 0.0
 -42.449882 -6.484203 0.0
 -41.583555 -5.984028 0.0
 -39.850993 -7.984729 0.0
 -38.984668 -9.48525 0.0
 -40.717315 -9.48525 0.0
 -39.850992 -8.985076 0.0
 -43.315832 -7.984859 0.0
 -42.449766 -9.485281 0.0
 -44.181068 -9.485472 0.0
 -43.315683 -8.985224 0.0
 -41.583595 -8.985088 0.0
 -42.449909 -7.484568 0.0
 -40.717309 -7.484555 0.0
 -41.583588 -7.984741 0.0
 -38.118343 -10.98577 0.0
 -37.252017 -12.486291 0.0
 -38.984668 -12.486291 0.0
 -38.118343 -11.986117 0.0
 -36.385691 -13.986811 0.0
 -35.519365 -15.487332 0.0
 -37.252017 -15.487332 0.0
 -36.385691 -14.987158 0.0
 -39.850993 -13.986812 0.0
 -38.984668 -15.487332 0.0
 -40.717315 -15.487333 0.0
 -39.850992 -14.987159 0.0
 -38.118343 -14.987158 0.0
 -38.984668 -13.486638 0.0
 -37.252017 -13.486638 0.0
 -38.118343 -13.986811 0.0
 -45.044251 -10.984943 0.0
 -44.181747 -12.486204 0.0
 -45.912013 -12.485693 0.0
 -45.044829 -11.985193 0.0
 -43.31599 -13.98689 0.0
 -42.449794 -15.487346 0.0
 -44.181351 -15.48748 0.0
 -43.315854 -14.987239 0.0
 -46.755372 -13.99731 0.0
 -45.899847 -15.488623 0.0
 -47.562111 -15.497753 0.0
 -46.744237 -14.997492 0.0
 -45.043986 -14.988435 0.0
 -45.911429 -13.488009 0.0
 -44.181934 -13.486699 0.0
 -45.044432 -13.988003 0.0
 -41.583614 -14.987166 0.0
 -42.449929 -13.48665 0.0
 -40.717314 -13.486639 0.0
 -41.583613 -13.986819 0.0
 -43.315765 -11.986036 0.0
 -44.181023 -10.485622 0.0
 -42.449747 -10.48561 0.0
 -43.315619 -10.985703 0.0
 -39.850987 -11.986117 0.0
 -40.717309 -10.485596 0.0
 -38.984668 -10.485597 0.0
 -39.850986 -10.98577 0.0
 -41.58357 -10.985763 0.0
 -40.717308 -12.486291 0.0
 -42.449891 -12.48629 0.0
 -41.583569 -11.986111 0.0
 -49.650238 -14.894075 0.0
 -49.174837 -13.891993 0.0
 -48.296965 -16.920583 0.0
 -47.646963 -18.482552 0.0
 -49.173947 -18.098692 0.0
 -48.369118 -17.920747 0.0
 -46.757776 -19.998826 0.0
 -45.901233 -21.490816 0.0
 -47.563617 -21.499554 0.0
 -46.747088 -20.999222 0.0
 -49.648659 -20.894729 0.0
 -49.173273 -19.89195 0.0
 -48.295787 -21.063943 0.0
 -47.64635 -19.498776 0.0
 -48.367831 -20.063562 0.0
 -45.04502 -22.989287 0.0
 -44.181959 -24.490465 0.0
 -45.912348 -24.490141 0.0
 -45.045567 -23.989671 0.0
 -43.315901 -25.991094 0.0
 -42.449758 -27.491515 0.0
 -44.181106 -27.491677 0.0
 -43.315752 -26.991438 0.0
 -46.757104 -26.000594 0.0
 -45.899899 -27.492507 0.0
 -47.562666 -27.500895 0.0
 -46.745612 -27.000713 0.0
 -45.044514 -26.992412 0.0
 -45.911998 -25.492013 0.0
 -44.181863 -25.490958 0.0
 -45.045121 -25.992037 0.0
 -49.649236 -26.89504 0.0
 -49.173923 -25.893756 0.0
 -48.295979 -27.065361 0.0
 -47.646457 -25.501343 0.0
 -48.368279 -26.065927 0.0
 -49.524687 -24.998716 0.0
 -49.101229 -21.558998 0.0
 -49.649684 -23.102046 0.0
 -49.102254 -22.432981 0.0
 -46.755572 -23.982059 0.0
 -47.561532 -22.48345 0.0
 -45.900876 -22.48964 0.0
 -46.744647 -22.981942 0.0
 -48.294727 -22.921823 0.0
 -47.644575 -24.48468 0.0
 -49.174371 -24.100762 0.0
 -48.366844 -23.922937 0.0
 -49.524614 -18.997221 0.0
 -49.102699 -15.557799 0.0
 -49.649333 -17.101471 0.0
 -49.101794 -16.431862 0.0
 -0.491097 -49.093047 0.0
 0.491102 -49.093163 0.0
 -1.611249 -47.853634 0.0
 1.157782 -49.583179 0.0
 -2.569195 -46.460959 0.0
 -0.848718 -46.446124 0.0
 -1.693242 -46.92828 0.0
 1.611384 -47.851436 0.0
 0.849201 -46.444192 0.0
 2.568802 -46.459995 0.0
 1.693359 -46.92569 0.0
 0.000483 -46.915455 0.0
 0.767225 -48.220203 0.0
 -0.766725 -48.221743 0.0
 0.000482 -47.76572 0.0
 -3.460305 -44.990565 0.0
 -4.330897 -43.495795 0.0
 -2.597842 -43.495191 0.0
 -3.463665 -43.994548 0.0
 -5.197903 -41.996382 0.0
 -6.064278 -40.495984 0.0
 -4.331607 -40.495964 0.0
 -5.197932 -40.996121 0.0
 -1.732584 -41.996391 0.0
 -2.598952 -40.495962 0.0
 -0.866317 -40.495983 0.0
 -1.73262 -40.996117 0.0
 -3.465261 -40.996103 0.0
 -2.598756 -42.496317 0.0
 -4.331418 -42.496305 0.0
 -3.4651 -41.996184 0.0
 3.460287 -44.990422 0.0
 2.597841 -43.495134 0.0
 4.330889 -43.495714 0.0
 3.463662 -43.994424 0.0
 1.732589 -41.996392 0.0
 0.86632 -40.495985 0.0
 2.598954 -40.495964 0.0
 1.732625 -40.996121 0.0
 5.197896 -41.996376 0.0
 4.331604 -40.495958 0.0
 6.064277 -40.495983 0.0
 5.197928 -40.996114 0.0
 3.46526 -40.996099 0.0
 4.331411 -42.496289 0.0
 2.598757 -42.496303 0.0
 3.465099 -41.996168 0.0
 3e-06 -40.996146 0.0
 0.866285 -42.496512 0.0
 -0.86628 -42.496512 0.0
 3e-06 -41.996401 0.0
 1.731101 -43.993796 0.0
 2.590045 -45.483023 0.0
 0.861277 -45.481161 0.0
 1.726679 -44.985686 0.0
 -1.731148 -43.993726 0.0
 -0.861337 -45.481321 0.0
 -2.590048 -45.483371 0.0
 -1.726715 -44.985889 0.0
 -6e-05 -44.98762 0.0
 -0.865758 -43.494972 0.0
 0.865712 -43.495085 0.0
 -4.7e-05 -43.993434 0.0
 -6.930608 -38.995486 0.0
 -7.796934 -37.494967 0.0
 -6.064282 -37.494967 0.0
 -6.930608 -37.99514 0.0
 -8.66326 -35.994447 0.0
 -9.529586 -34.493926 0.0
 -7.796934 -34.493926 0.0
 -8.66326 -34.9941 0.0
 -5.197956 -35.994447 0.0
 -6.064282 -34.493926 0.0
 -4.33163 -34.493926 0.0
 -5.197956 -34.9941 0.0
 -6.930608 -34.9941 0.0
 -6.064282 -36.49462 0.0
 -7.796934 -36.49462 0.0
 -6.930608 -35.994447 0.0
 -10.395912 -32.993406 0.0
 -11.262238 -31.492885 0.0
 -9.529586 -31.492885 0.0
 -10.395912 -31.993059 0.0
 -12.128564 -29.992364 0.0
 -12.99489 -28.491844 0.0
 -11.262238 -28.491844 0.0
 -12.128564 -28.992017 0.0
 -8.66326 -29.992364 0.0
 -9.529586 -28.491844 0.0
 -7.796934 -28.491844 0.0
 -8.66326 -28.992017 0.0
 -10.395912 -28.992017 0.0
 -9.529586 -30.492538 0.0
 -11.262238 -30.492538 0.0
 -10.395912 -29.992364 0.0
 -3.465304 -32.993406 0.0
 -4.33163 -31.492885 0.0
 -2.598978 -31.492885 0.0
 -3.465304 -31.993059 0.0
 -5.197956 -29.992364 0.0
 -6.064282 -28.491844 0.0
 -4.33163 -28.491844 0.0
 -5.197956 -28.992017 0.0
 -1.732652 -29.992364 0.0
 -2.598978 -28.491844 0.0
 -0.866326 -28.491844 0.0
 -1.732652 -28.992017 0.0
 -3.465304 -28.992017 0.0
 -2.598978 -30.492538 0.0
 -4.33163 -30.492538 0.0
 -3.465304 -29.992364 0.0
 -6.930608 -28.992017 0.0
 -6.064282 -30.492538 0.0
 -7.796934 -30.492538 0.0
 -6.930608 -29.992364 0.0
 -5.197956 -31.993059 0.0
 -4.33163 -33.493579 0.0
 -6.064282 -33.493579 0.0
 -5.197956 -32.993406 0.0
 -8.66326 -31.993059 0.0
 -7.796934 -33.493579 0.0
 -9.529586 -33.493579 0.0
 -8.66326 -32.993406 0.0
 -6.930608 -32.993406 0.0
 -7.796934 -31.492885 0.0
 -6.064282 -31.492885 0.0
 -6.930608 -31.993059 0.0
 6.930608 -38.995486 0.0
 6.064282 -37.494967 0.0
 7.796934 -37.494967 0.0
 6.930608 -37.99514 0.0
 5.197956 -35.994447 0.0
 4.33163 -34.493926 0.0
 6.064282 -34.493926 0.0
 5.197956 -34.9941 0.0
 8.66326 -35.994447 0.0
 7.796934 -34.493926 0.0
 9.529586 -34.493926 0.0
 8.66326 -34.9941 0.0
 6.930608 -34.9941 0.0
 7.796934 -36.49462 0.0
 6.064282 -36.49462 0.0
 6.930608 -35.994447 0.0
 3.465304 -32.993406 0.0
 2.598978 -31.492885 0.0
 4.33163 -31.492885 0.0
 3.465304 -31.993059 0.0
 1.732652 -29.992364 0.0
 0.866326 -28.491844 0.0
 2.598978 -28.491844 0.0
 1.732652 -28.992017 0.0
 5.197956 -29.992364 0.0
 4.33163 -28.491844 0.0
 6.064282 -28.491844 0.0
 5.197956 -28.992017 0.0
 3.465304 -28.992017 0.0
 4.33163 -30.492538 0.0
 2.598978 -30.492538 0.0
 3.465304 -29.992364 0.0
 10.395912 -32.993406 0.0
 9.529586 -31.492885 0.0
 11.262238 -31.492885 0.0
 10.395912 -31.993059 0.0
 8.66326 -29.992364 0.0
 7.796934 -28.491844 0.0
 9.529586 -28.491844 0.0
 8.66326 -28.992017 0.0
 12.128564 -29.992364 0.0
 11.262238 -28.491844 0.0
 12.99489 -28.491844 0.0
 12.128564 -28.992017 0.0
 10.395912 -28.992017 0.0
 11.262238 -30.492538 0.0
 9.529586 -30.492538 0.0
 10.395912 -29.992364 0.0
 6.930608 -28.992017 0.0
 7.796934 -30.492538 0.0
 6.064282 -30.492538 0.0
 6.930608 -29.992364 0.0
 8.66326 -31.993059 0.0
 9.529586 -33.493579 0.0
 7.796934 -33.493579 0.0
 8.66326 -32.993406 0.0
 5.197956 -31.993059 0.0
 6.064282 -33.493579 0.0
 4.33163 -33.493579 0.0
 5.197956 -32.993406 0.0
 6.930608 -32.993406 0.0
 6.064282 -31.492885 0.0
 7.796934 -31.492885 0.0
 6.930608 -31.993059 0.0
 0.0 -28.992017 0.0
 0.866326 -30.492538 0.0
 -0.866326 -30.492538 0.0
 0.0 -29.992364 0.0
 1.732652 -31.993059 0.0
 2.598978 -33.493579 0.0
 0.866326 -33.493579 0.0
 1.732652 -32.993406 0.0
 -1.732652 -31.993059 0.0
 -0.866326 -33.493579 0.0
 -2.598978 -33.493579 0.0
 -1.732652 -32.993406 0.0
 0.0 -32.993406 0.0
 -0.866326 -31.492885 0.0
 0.866326 -31.492885 0.0
 0.0 -31.993059 0.0
 3.465304 -34.9941 0.0
 4.33163 -36.49462 0.0
 2.598978 -36.49462 0.0
 3.465304 -35.994447 0.0
 5.197955 -37.995139 0.0
 6.064279 -39.495653 0.0
 4.331627 -39.495654 0.0
 5.197953 -38.99548 0.0
 1.732651 -37.99514 0.0
 2.598975 -39.495655 0.0
 0.866323 -39.495654 0.0
 1.732649 -38.995481 0.0
 3.465303 -38.995486 0.0
 2.598978 -37.494967 0.0
 4.33163 -37.494967 0.0
 3.465303 -37.99514 0.0
 -3.465304 -34.9941 0.0
 -2.598978 -36.49462 0.0
 -4.33163 -36.49462 0.0
 -3.465304 -35.994447 0.0
 -1.732651 -37.995139 0.0
 -0.866323 -39.495654 0.0
 -2.598974 -39.495654 0.0
 -1.732648 -38.99548 0.0
 -5.197955 -37.995139 0.0
 -4.331627 -39.495654 0.0
 -6.06428 -39.495654 0.0
 -5.197953 -38.995481 0.0
 -3.465303 -38.995486 0.0
 -4.33163 -37.494967 0.0
 -2.598978 -37.494967 0.0
 -3.465303 -37.995139 0.0
 -0.0 -38.995485 0.0
 -0.866326 -37.494967 0.0
 0.866326 -37.494967 0.0
 -0.0 -37.995139 0.0
 -1.732652 -35.994447 0.0
 -2.598978 -34.493926 0.0
 -0.866326 -34.493926 0.0
 -1.732652 -34.9941 0.0
 1.732652 -35.994447 0.0
 0.866326 -34.493926 0.0
 2.598978 -34.493926 0.0
 1.732652 -34.9941 0.0
 -0.0 -34.9941 0.0
 0.866326 -36.49462 0.0
 -0.866326 -36.49462 0.0
 -0.0 -35.994447 0.0
 -13.861216 -26.991323 0.0
 -14.727542 -25.490803 0.0
 -12.99489 -25.490803 0.0
 -13.861216 -25.990976 0.0
 -15.593868 -23.990282 0.0
 -16.460194 -22.489761 0.0
 -14.727542 -22.489761 0.0
 -15.593868 -22.989935 0.0
 -12.128564 -23.990282 0.0
 -12.99489 -22.489761 0.0
 -11.262238 -22.489761 0.0
 -12.128564 -22.989935 0.0
 -13.861216 -22.989935 0.0
 -12.99489 -24.490456 0.0
 -14.727542 -24.490456 0.0
 -13.861216 -23.990282 0.0
 -17.326519 -20.989241 0.0
 -18.192845 -19.48872 0.0
 -16.460194 -19.48872 0.0
 -17.326519 -19.988894 0.0
 -19.059171 -17.9882 0.0
 -19.925497 -16.487679 0.0
 -18.192845 -16.487679 0.0
 -19.059171 -16.987853 0.0
 -15.593868 -17.9882 0.0
 -16.460194 -16.487679 0.0
 -14.727542 -16.487679 0.0
 -15.593868 -16.987853 0.0
 -17.326519 -16.987853 0.0
 -16.460194 -18.488373 0.0
 -18.192845 -18.488373 0.0
 -17.326519 -17.9882 0.0
 -10.395912 -20.989241 0.0
 -11.262238 -19.48872 0.0
 -9.529586 -19.48872 0.0
 -10.395912 -19.988894 0.0
 -12.128564 -17.9882 0.0
 -12.99489 -16.487679 0.0
 -11.262238 -16.487679 0.0
 -12.128564 -16.987853 0.0
 -8.66326 -17.9882 0.0
 -9.529586 -16.487679 0.0
 -7.796934 -16.487679 0.0
 -8.66326 -16.987853 0.0
 -10.395912 -16.987853 0.0
 -9.529586 -18.488373 0.0
 -11.262238 -18.488373 0.0
 -10.395912 -17.9882 0.0
 -13.861216 -16.987853 0.0
 -12.99489 -18.488373 0.0
 -14.727542 -18.488373 0.0
 -13.861216 -17.9882 0.0
 -12.128564 -19.988894 0.0
 -11.262238 -21.489414 0.0
 -12.99489 -21.489414 0.0
 -12.128564 -20.989241 0.0
 -15.593868 -19.988894 0.0
 -14.727542 -21.489414 0.0
 -16.460194 -21.489414 0.0
 -15.593868 -20.989241 0.0
 -13.861216 -20.989241 0.0
 -14.727542 -19.48872 0.0
 -12.99489 -19.48872 0.0
 -13.861216 -19.988894 0.0
 -20.791823 -14.987158 0.0
 -21.658149 -13.486638 0.0
 -19.925497 -13.486638 0.0
 -20.791823 -13.986811 0.0
 -22.524475 -11.986117 0.0
 -23.390801 -10.485597 0.0
 -21.658149 -10.485597 0.0
 -22.524475 -10.98577 0.0
 -19.059171 -11.986117 0.0
 -19.925497 -10.485597 0.0
 -18.192845 -10.485597 0.0
 -19.059171 -10.98577 0.0
 -20.791823 -10.98577 0.0
 -19.925497 -12.486291 0.0
 -21.658149 -12.486291 0.0
 -20.791823 -11.986117 0.0
 -24.257127 -8.985076 0.0
 -25.123453 -7.484555 0.0
 -23.390801 -7.484555 0.0
 -24.257127 -7.984729 0.0
 -25.989779 -5.984035 0.0
 -26.856105 -4.483514 0.0
 -25.123453 -4.483514 0.0
 -25.989779 -4.983688 0.0
 -22.524475 -5.984035 0.0
 -23.390801 -4.483514 0.0
 -21.658149 -4.483514 0.0
 -22.524475 -4.983688 0.0
 -24.257127 -4.983688 0.0
 -23.390801 -6.484208 0.0
 -25.123453 -6.484208 0.0
 -24.257127 -5.984035 0.0
 -17.326519 -8.985076 0.0
 -18.192845 -7.484555 0.0
 -16.460194 -7.484555 0.0
 -17.326519 -7.984729 0.0
 -19.059171 -5.984035 0.0
 -19.925497 -4.483514 0.0
 -18.192845 -4.483514 0.0
 -19.059171 -4.983688 0.0
 -15.593868 -5.984035 0.0
 -16.460194 -4.483514 0.0
 -14.727542 -4.483514 0.0
 -15.593868 -4.983688 0.0
 -17.326519 -4.983688 0.0
 -16.460194 -6.484208 0.0
 -18.192845 -6.484208 0.0
 -17.326519 -5.984035 0.0
 -20.791823 -4.983688 0.0
 -19.925497 -6.484208 0.0
 -21.658149 -6.484208 0.0
 -20.791823 -5.984035 0.0
 -19.059171 -7.984729 0.0
 -18.192845 -9.48525 0.0
 -19.925497 -9.48525 0.0
 -19.059171 -8.985076 0.0
 -22.524475 -7.984729 0.0
 -21.658149 -9.48525 0.0
 -23.390801 -9.48525 0.0
 -22.524475 -8.985076 0.0
 -20.791823 -8.985076 0.0
 -21.658149 -7.484555 0.0
 -19.925497 -7.484555 0.0
 -20.791823 -7.984729 0.0
 -6.930608 -14.987158 0.0
 -7.796934 -13.486638 0.0
 -6.064282 -13.486638 0.0
 -6.930608 -13.986811 0.0
 -8.66326 -11.986117 0.0
 -9.529586 -10.485597 0.0
 -7.796934 -10.485597 0.0
 -8.66326 -10.98577 0.0
 -5.197956 -11.986117 0.0
 -6.064282 -10.485597 0.0
 -4.33163 -10.485597 0.0
 -5.197956 -10.98577 0.0
 -6.930608 -10.98577 0.0
 -6.064282 -12.486291 0.0
 -7.796934 -12.486291 0.0
 -6.930608 -11.986117 0.0
 -10.395912 -8.985076 0.0
 -11.262238 -7.484555 0.0
 -9.529586 -7.484555 0.0
 -10.395912 -7.984729 0.0
 -12.128564 -5.984035 0.0
 -12.99489 -4.483514 0.0
 -11.262238 -4.483514 0.0
 -12.128564 -4.983688 0.0
 -8.66326 -5.984035 0.0
 -9.529586 -4.483514 0.0
 -7.796934 -4.483514 0.0
 -8.66326 -4.983688 0.0
 -10.395912 -4.983688 0.0
 -9.529586 -6.484208 0.0
 -11.262238 -6.484208 0.0
 -10.395912 -5.984035 0.0
 -3.465304 -8.985076 0.0
 -4.33163 -7.484555 0.0
 -2.598978 -7.484555 0.0
 -3.465304 -7.984729 0.0
 -5.197956 -5.984035 0.0
 -6.064282 -4.483514 0.0
 -4.33163 -4.483514 0.0
 -5.197956 -4.983688 0.0
 -1.732652 -5.984035 0.0
 -2.598978 -4.483514 0.0
 -0.866326 -4.483514 0.0
 -1.732652 -4.983688 0.0
 -3.465304 -4.983688 0.0
 -2.598978 -6.484208 0.0
 -4.33163 -6.484208 0.0
 -3.465304 -5.984035 0.0
 -6.930608 -4.983688 0.0
 -6.064282 -6.484208 0.0
 -7.796934 -6.484208 0.0
 -6.930608 -5.984035 0.0
 -5.197956 -7.984729 0.0
 -4.33163 -9.48525 0.0
 -6.064282 -9.48525 0.0
 -5.197956 -8.985076 0.0
 -8.66326 -7.984729 0.0
 -7.796934 -9.48525 0.0
 -9.529586 -9.48525 0.0
 -8.66326 -8.985076 0.0
 -6.930608 -8.985076 0.0
 -7.796934 -7.484555 0.0
 -6.064282 -7.484555 0.0
 -6.930608 -7.984729 0.0
 -13.861216 -4.983688 0.0
 -12.99489 -6.484208 0.0
 -14.727542 -6.484208 0.0
 -13.861216 -5.984035 0.0
 -12.128564 -7.984729 0.0
 -11.262238 -9.48525 0.0
 -12.99489 -9.48525 0.0
 -12.128564 -8.985076 0.0
 -15.593868 -7.984729 0.0
 -14.727542 -9.48525 0.0
 -16.460194 -9.48525 0.0
 -15.593868 -8.985076 0.0
 -13.861216 -8.985076 0.0
 -14.727542 -7.484555 0.0
 -12.99489 -7.484555 0.0
 -13.861216 -7.984729 0.0
 -10.395912 -10.98577 0.0
 -9.529586 -12.486291 0.0
 -11.262238 -12.486291 0.0
 -10.395912 -11.986117 0.0
 -8.66326 -13.986811 0.0
 -7.796934 -15.487332 0.0
 -9.529586 -15.487332 0.0
 -8.66326 -14.987158 0.0
 -12.128564 -13.986811 0.0
 -11.262238 -15.487332 0.0
 -12.99489 -15.487332 0.0
 -12.128564 -14.987158 0.0
 -10.395912 -14.987158 0.0
 -11.262238 -13.486638 0.0
 -9.529586 -13.486638 0.0
 -10.395912 -13.986811 0.0
 -17.326519 -10.98577 0.0
 -16.460194 -12.486291 0.0
 -18.192845 -12.486291 0.0
 -17.326519 -11.986117 0.0
 -15.593868 -13.986811 0.0
 -14.727542 -15.487332 0.0
 -16.460194 -15.487332 0.0
 -15.593868 -14.987158 0.0
 -19.059171 -13.986811 0.0
 -18.192845 -15.487332 0.0
 -19.925497 -15.487332 0.0
 -19.059171 -14.987158 0.0
 -17.326519 -14.987158 0.0
 -18.192845 -13.486638 0.0
 -16.460194 -13.486638 0.0
 -17.326519 -13.986811 0.0
 -13.861216 -14.987158 0.0
 -14.727542 -13.486638 0.0
 -12.99489 -13.486638 0.0
 -13.861216 -13.986811 0.0
 -15.593868 -11.986117 0.0
 -16.460194 -10.485597 0.0
 -14.727542 -10.485597 0.0
 -15.593868 -10.98577 0.0
 -12.128564 -11.986117 0.0
 -12.99489 -10.485597 0.0
 -11.262238 -10.485597 0.0
 -12.128564 -10.98577 0.0
 -13.861216 -10.98577 0.0
 -12.99489 -12.486291 0.0
 -14.727542 -12.486291 0.0
 -13.861216 -11.986117 0.0
 13.861216 -26.991323 0.0
 12.99489 -25.490803 0.0
 14.727542 -25.490803 0.0
 13.861216 -25.990976 0.0
 12.128564 -23.990282 0.0
 11.262238 -22.489761 0.0
 12.99489 -22.489761 0.0
 12.128564 -22.989935 0.0
 15.593868 -23.990282 0.0
 14.727542 -22.489761 0.0
 16.460194 -22.489761 0.0
 15.593868 -22.989935 0.0
 13.861216 -22.989935 0.0
 14.727542 -24.490456 0.0
 12.99489 -24.490456 0.0
 13.861216 -23.990282 0.0
 10.395912 -20.989241 0.0
 9.529586 -19.48872 0.0
 11.262238 -19.48872 0.0
 10.395912 -19.988894 0.0
 8.66326 -17.9882 0.0
 7.796934 -16.487679 0.0
 9.529586 -16.487679 0.0
 8.66326 -16.987853 0.0
 12.128564 -17.9882 0.0
 11.262238 -16.487679 0.0
 12.99489 -16.487679 0.0
 12.128564 -16.987853 0.0
 10.395912 -16.987853 0.0
 11.262238 -18.488373 0.0
 9.529586 -18.488373 0.0
 10.395912 -17.9882 0.0
 17.326519 -20.989241 0.0
 16.460194 -19.48872 0.0
 18.192845 -19.48872 0.0
 17.326519 -19.988894 0.0
 15.593868 -17.9882 0.0
 14.727542 -16.487679 0.0
 16.460194 -16.487679 0.0
 15.593868 -16.987853 0.0
 19.059171 -17.9882 0.0
 18.192845 -16.487679 0.0
 19.925497 -16.487679 0.0
 19.059171 -16.987853 0.0
 17.326519 -16.987853 0.0
 18.192845 -18.488373 0.0
 16.460194 -18.488373 0.0
 17.326519 -17.9882 0.0
 13.861216 -16.987853 0.0
 14.727542 -18.488373 0.0
 12.99489 -18.488373 0.0
 13.861216 -17.9882 0.0
 15.593868 -19.988894 0.0
 16.460194 -21.489414 0.0
 14.727542 -21.489414 0.0
 15.593868 -20.989241 0.0
 12.128564 -19.988894 0.0
 12.99489 -21.489414 0.0
 11.262238 -21.489414 0.0
 12.128564 -20.989241 0.0
 13.861216 -20.989241 0.0
 12.99489 -19.48872 0.0
 14.727542 -19.48872 0.0
 13.861216 -19.988894 0.0
 6.930608 -14.987158 0.0
 6.064282 -13.486638 0.0
 7.796934 -13.486638 0.0
 6.930608 -13.986811 0.0
 5.197956 -11.986117 0.0
 4.33163 -10.485597 0.0
 6.064282 -10.485597 0.0
 5.197956 -10.98577 0.0
 8.66326 -11.986117 0.0
 7.796934 -10.485597 0.0
 9.529586 -10.485597 0.0
 8.66326 -10.98577 0.0
 6.930608 -10.98577 0.0
 7.796934 -12.486291 0.0
 6.064282 -12.486291 0.0
 6.930608 -11.986117 0.0
 3.465304 -8.985076 0.0
 2.598978 -7.484555 0.0
 4.33163 -7.484555 0.0
 3.465304 -7.984729 0.0
 1.732652 -5.984035 0.0
 0.866326 -4.483514 0.0
 2.598978 -4.483514 0.0
 1.732652 -4.983688 0.0
 5.197956 -5.984035 0.0
 4.33163 -4.483514 0.0
 6.064282 -4.483514 0.0
 5.197956 -4.983688 0.0
 3.465304 -4.983688 0.0
 4.33163 -6.484208 0.0
 2.598978 -6.484208 0.0
 3.465304 -5.984035 0.0
 10.395912 -8.985076 0.0
 9.529586 -7.484555 0.0
 11.262238 -7.484555 0.0
 10.395912 -7.984729 0.0
 8.66326 -5.984035 0.0
 7.796934 -4.483514 0.0
 9.529586 -4.483514 0.0
 8.66326 -4.983688 0.0
 12.128564 -5.984035 0.0
 11.262238 -4.483514 0.0
 12.99489 -4.483514 0.0
 12.128564 -4.983688 0.0
 10.395912 -4.983688 0.0
 11.262238 -6.484208 0.0
 9.529586 -6.484208 0.0
 10.395912 -5.984035 0.0
 6.930608 -4.983688 0.0
 7.796934 -6.484208 0.0
 6.064282 -6.484208 0.0
 6.930608 -5.984035 0.0
 8.66326 -7.984729 0.0
 9.529586 -9.48525 0.0
 7.796934 -9.48525 0.0
 8.66326 -8.985076 0.0
 5.197956 -7.984729 0.0
 6.064282 -9.48525 0.0
 4.33163 -9.48525 0.0
 5.197956 -8.985076 0.0
 6.930608 -8.985076 0.0
 6.064282 -7.484555 0.0
 7.796934 -7.484555 0.0
 6.930608 -7.984729 0.0
 20.791823 -14.987158 0.0
 19.925497 -13.486638 0.0
 21.658149 -13.486638 0.0
 20.791823 -13.986811 0.0
 19.059171 -11.986117 0.0
 18.192845 -10.485597 0.0
 19.925497 -10.485597 0.0
 19.059171 -10.98577 0.0
 22.524475 -11.986117 0.0
 21.658149 -10.485597 0.0
 23.390801 -10.485597 0.0
 22.524475 -10.98577 0.0
 20.791823 -10.98577 0.0
 21.658149 -12.486291 0.0
 19.925497 -12.486291 0.0
 20.791823 -11.986117 0.0
 17.326519 -8.985076 0.0
 16.460194 -7.484555 0.0
 18.192845 -7.484555 0.0
 17.326519 -7.984729 0.0
 15.593868 -5.984035 0.0
 14.727542 -4.483514 0.0
 16.460194 -4.483514 0.0
 15.593868 -4.983688 0.0
 19.059171 -5.984035 0.0
 18.192845 -4.483514 0.0
 19.925497 -4.483514 0.0
 19.059171 -4.983688 0.0
 17.326519 -4.983688 0.0
 18.192845 -6.484208 0.0
 16.460194 -6.484208 0.0
 17.326519 -5.984035 0.0
 24.257127 -8.985076 0.0
 23.390801 -7.484555 0.0
 25.123453 -7.484555 0.0
 24.257127 -7.984729 0.0
 22.524475 -5.984035 0.0
 21.658149 -4.483514 0.0
 23.390801 -4.483514 0.0
 22.524475 -4.983688 0.0
 25.989779 -5.984035 0.0
 25.123453 -4.483514 0.0
 26.856105 -4.483514 0.0
 25.989779 -4.983688 0.0
 24.257127 -4.983688 0.0
 25.123453 -6.484208 0.0
 23.390801 -6.484208 0.0
 24.257127 -5.984035 0.0
 20.791823 -4.983688 0.0
 21.658149 -6.484208 0.0
 19.925497 -6.484208 0.0
 20.791823 -5.984035 0.0
 22.524475 -7.984729 0.0
 23.390801 -9.48525 0.0
 21.658149 -9.48525 0.0
 22.524475 -8.985076 0.0
 19.059171 -7.984729 0.0
 19.925497 -9.48525 0.0
 18.192845 -9.48525 0.0
 19.059171 -8.985076 0.0
 20.791823 -8.985076 0.0
 19.925497 -7.484555 0.0
 21.658149 -7.484555 0.0
 20.791823 -7.984729 0.0
 13.861216 -4.983688 0.0
 14.727542 -6.484208 0.0
 12.99489 -6.484208 0.0
 13.861216 -5.984035 0.0
 15.593868 -7.984729 0.0
 16.460194 -9.48525 0.0
 14.727542 -9.48525 0.0
 15.593868 -8.985076 0.0
 12.128564 -7.984729 0.0
 12.99489 -9.48525 0.0
 11.262238 -9.48525 0.0
 12.128564 -8.985076 0.0
 13.861216 -8.985076 0.0
 12.99489 -7.484555 0.0
 14.727542 -7.484555 0.0
 13.861216 -7.984729 0.0
 17.326519 -10.98577 0.0
 18.192845 -12.486291 0.0
 16.460194 -12.486291 0.0
 17.326519 -11.986117 0.0
 19.059171 -13.986811 0.0
 19.925497 -15.487332 0.0
 18.192845 -15.487332 0.0
 19.059171 -14.987158 0.0
 15.593868 -13.986811 0.0
 16.460194 -15.487332 0.0
 14.727542 -15.487332 0.0
 15.593868 -14.987158 0.0
 17.326519 -14.987158 0.0
 16.460194 -13.486638 0.0
 18.192845 -13.486638 0.0
 17.326519 -13.986811 0.0
 10.395912 -10.98577 0.0
 11.262238 -12.486291 0.0
 9.529586 -12.486291 0.0
 10.395912 -11.986117 0.0
 12.128564 -13.986811 0.0
 12.99489 -15.487332 0.0
 11.262238 -15.487332 0.0
 12.128564 -14.987158 0.0
 8.66326 -13.986811 0.0
 9.529586 -15.487332 0.0
 7.796934 -15.487332 0.0
 8.66326 -14.987158 0.0
 10.395912 -14.987158 0.0
 9.529586 -13.486638 0.0
 11.262238 -13.486638 0.0
 10.395912 -13.986811 0.0
 13.861216 -14.987158 0.0
 12.99489 -13.486638 0.0
 14.727542 -13.486638 0.0
 13.861216 -13.986811 0.0
 12.128564 -11.986117 0.0
 11.262238 -10.485597 0.0
 12.99489 -10.485597 0.0
 12.128564 -10.98577 0.0
 15.593868 -11.986117 0.0
 14.727542 -10.485597 0.0
 16.460194 -10.485597 0.0
 15.593868 -10.98577 0.0
 13.861216 -10.98577 0.0
 14.727542 -12.486291 0.0
 12.99489 -12.486291 0.0
 13.861216 -11.986117 0.0
 0.0 -4.983688 0.0
 0.866326 -6.484208 0.0
 -0.866326 -6.484208 0.0
 0.0 -5.984035 0.0
 1.732652 -7.984729 0.0
 2.598978 -9.48525 0.0
 0.866326 -9.48525 0.0
 1.732652 -8.985076 0.0
 -1.732652 -7.984729 0.0
 -0.866326 -9.48525 0.0
 -2.598978 -9.48525 0.0
 -1.732652 -8.985076 0.0
 0.0 -8.985076 0.0
 -0.866326 -7.484555 0.0
 0.866326 -7.484555 0.0
 0.0 -7.984729 0.0
 3.465304 -10.98577 0.0
 4.33163 -12.486291 0.0
 2.598978 -12.486291 0.0
 3.465304 -11.986117 0.0
 5.197956 -13.986811 0.0
 6.064282 -15.487332 0.0
 4.33163 -15.487332 0.0
 5.197956 -14.987158 0.0
 1.732652 -13.986811 0.0
 2.598978 -15.487332 0.0
 0.866326 -15.487332 0.0
 1.732652 -14.987158 0.0
 3.465304 -14.987158 0.0
 2.598978 -13.486638 0.0
 4.33163 -13.486638 0.0
 3.465304 -13.986811 0.0
 -3.465304 -10.98577 0.0
 -2.598978 -12.486291 0.0
 -4.33163 -12.486291 0.0
 -3.465304 -11.986117 0.0
 -1.732652 -13.986811 0.0
 -0.866326 -15.487332 0.0
 -2.598978 -15.487332 0.0
 -1.732652 -14.987158 0.0
 -5.197956 -13.986811 0.0
 -4.33163 -15.487332 0.0
 -6.064282 -15.487332 0.0
 -5.197956 -14.987158 0.0
 -3.465304 -14.987158 0.0
 -4.33163 -13.486638 0.0
 -2.598978 -13.486638 0.0
 -3.465304 -13.986811 0.0
 0.0 -14.987158 0.0
 -0.866326 -13.486638 0.0
 0.866326 -13.486638 0.0
 0.0 -13.986811 0.0
 -1.732652 -11.986117 0.0
 -2.598978 -10.485597 0.0
 -0.866326 -10.485597 0.0
 -1.732652 -10.98577 0.0
 1.732652 -11.986117 0.0
 0.866326 -10.485597 0.0
 2.598978 -10.485597 0.0
 1.732652 -10.98577 0.0
 0.0 -10.98577 0.0
 0.866326 -12.486291 0.0
 -0.866326 -12.486291 0.0
 0.0 -11.986117 0.0
 6.930608 -16.987853 0.0
 7.796934 -18.488373 0.0
 6.064282 -18.488373 0.0
 6.930608 -17.9882 0.0
 8.66326 -19.988894 0.0
 9.529586 -21.489414 0.0
 7.796934 -21.489414 0.0
 8.66326 -20.989241 0.0
 5.197956 -19.988894 0.0
 6.064282 -21.489414 0.0
 4.33163 -21.489414 0.0
 5.197956 -20.989241 0.0
 6.930608 -20.989241 0.0
 6.064282 -19.48872 0.0
 7.796934 -19.48872 0.0
 6.930608 -19.988894 0.0
 10.395912 -22.989935 0.0
 11.262238 -24.490456 0.0
 9.529586 -24.490456 0.0
 10.395912 -23.990282 0.0
 12.128564 -25.990976 0.0
 12.99489 -27.491497 0.0
 11.262238 -27.491497 0.0
 12.128564 -26.991323 0.0
 8.66326 -25.990976 0.0
 9.529586 -27.491497 0.0
 7.796934 -27.491497 0.0
 8.66326 -26.991323 0.0
 10.395912 -26.991323 0.0
 9.529586 -25.490803 0.0
 11.262238 -25.490803 0.0
 10.395912 -25.990976 0.0
 3.465304 -22.989935 0.0
 4.33163 -24.490456 0.0
 2.598978 -24.490456 0.0
 3.465304 -23.990282 0.0
 5.197956 -25.990976 0.0
 6.064282 -27.491497 0.0
 4.33163 -27.491497 0.0
 5.197956 -26.991323 0.0
 1.732652 -25.990976 0.0
 2.598978 -27.491497 0.0
 0.866326 -27.491497 0.0
 1.732652 -26.991323 0.0
 3.465304 -26.991323 0.0
 2.598978 -25.490803 0.0
 4.33163 -25.490803 0.0
 3.465304 -25.990976 0.0
 6.930608 -26.991323 0.0
 6.064282 -25.490803 0.0
 7.796934 -25.490803 0.0
 6.930608 -25.990976 0.0
 5.197956 -23.990282 0.0
 4.33163 -22.489761 0.0
 6.064282 -22.489761 0.0
 5.197956 -22.989935 0.0
 8.66326 -23.990282 0.0
 7.796934 -22.489761 0.0
 9.529586 -22.489761 0.0
 8.66326 -22.989935 0.0
 6.930608 -22.989935 0.0
 7.796934 -24.490456 0.0
 6.064282 -24.490456 0.0
 6.930608 -23.990282 0.0
 -6.930608 -16.987853 0.0
 -6.064282 -18.488373 0.0
 -7.796934 -18.488373 0.0
 -6.930608 -17.9882 0.0
 -5.197956 -19.988894 0.0
 -4.33163 -21.489414 0.0
 -6.064282 -21.489414 0.0
 -5.197956 -20.989241 0.0
 -8.66326 -19.988894 0.0
 -7.796934 -21.489414 0.0
 -9.529586 -21.489414 0.0
 -8.66326 -20.989241 0.0
 -6.930608 -20.989241 0.0
 -7.796934 -19.48872 0.0
 -6.064282 -19.48872 0.0
 -6.930608 -19.988894 0.0
 -3.465304 -22.989935 0.0
 -2.598978 -24.490456 0.0
 -4.33163 -24.490456 0.0
 -3.465304 -23.990282 0.0
 -1.732652 -25.990976 0.0
 -0.866326 -27.491497 0.0
 -2.598978 -27.491497 0.0
 -1.732652 -26.991323 0.0
 -5.197956 -25.990976 0.0
 -4.33163 -27.491497 0.0
 -6.064282 -27.491497 0.0
 -5.197956 -26.991323 0.0
 -3.465304 -26.991323 0.0
 -4.33163 -25.490803 0.0
 -2.598978 -25.490803 0.0
 -3.465304 -25.990976 0.0
 -10.395912 -22.989935 0.0
 -9.529586 -24.490456 0.0
 -11.262238 -24.490456 0.0
 -10.395912 -23.990282 0.0
 -8.66326 -25.990976 0.0
 -7.796934 -27.491497 0.0
 -9.529586 -27.491497 0.0
 -8.66326 -26.991323 0.0
 -12.128564 -25.990976 0.0
 -11.262238 -27.491497 0.0
 -12.99489 -27.491497 0.0
 -12.128564 -26.991323 0.0
 -10.395912 -26.991323 0.0
 -11.262238 -25.490803 0.0
 -9.529586 -25.490803 0.0
 -10.395912 -25.990976 0.0
 -6.930608 -26.991323 0.0
 -7.796934 -25.490803 0.0
 -6.064282 -25.490803 0.0
 -6.930608 -25.990976 0.0
 -8.66326 -23.990282 0.0
 -9.529586 -22.489761 0.0
 -7.796934 -22.489761 0.0
 -8.66326 -22.989935 0.0
 -5.197956 -23.990282 0.0
 -6.064282 -22.489761 0.0
 -4.33163 -22.489761 0.0
 -5.197956 -22.989935 0.0
 -6.930608 -22.989935 0.0
 -6.064282 -24.490456 0.0
 -7.796934 -24.490456 0.0
 -6.930608 -23.990282 0.0
 0.0 -26.991323 0.0
 -0.866326 -25.490803 0.0
 0.866326 -25.490803 0.0
 -0.0 -25.990976 0.0
 -1.732652 -23.990282 0.0
 -2.598978 -22.489761 0.0
 -0.866326 -22.489761 0.0
 -1.732652 -22.989935 0.0
 1.732652 -23.990282 0.0
 0.866326 -22.489761 0.0
 2.598978 -22.489761 0.0
 1.732652 -22.989935 0.0
 0.0 -22.989935 0.0
 0.866326 -24.490456 0.0
 -0.866326 -24.490456 0.0
 -0.0 -23.990282 0.0
 -3.465304 -20.989241 0.0
 -4.33163 -19.48872 0.0
 -2.598978 -19.48872 0.0
 -3.465304 -19.988894 0.0
 -5.197956 -17.9882 0.0
 -6.064282 -16.487679 0.0
 -4.33163 -16.487679 0.0
 -5.197956 -16.987853 0.0
 -1.732652 -17.9882 0.0
 -2.598978 -16.487679 0.0
 -0.866326 -16.487679 0.0
 -1.732652 -16.987853 0.0
 -3.465304 -16.987853 0.0
 -2.598978 -18.488373 0.0
 -4.33163 -18.488373 0.0
 -3.465304 -17.9882 0.0
 3.465304 -20.989241 0.0
 2.598978 -19.48872 0.0
 4.33163 -19.48872 0.0
 3.465304 -19.988894 0.0
 1.732652 -17.9882 0.0
 0.866326 -16.487679 0.0
 2.598978 -16.487679 0.0
 1.732652 -16.987853 0.0
 5.197956 -17.9882 0.0
 4.33163 -16.487679 0.0
 6.064282 -16.487679 0.0
 5.197956 -16.987853 0.0
 3.465304 -16.987853 0.0
 4.33163 -18.488373 0.0
 2.598978 -18.488373 0.0
 3.465304 -17.9882 0.0
 0.0 -16.987853 0.0
 0.866326 -18.488373 0.0
 -0.866326 -18.488373 0.0
 0.0 -17.9882 0.0
 1.732652 -19.988894 0.0
 2.598978 -21.489414 0.0
 0.866326 -21.489414 0.0
 1.732652 -20.989241 0.0
 -1.732652 -19.988894 0.0
 -0.866326 -21.489414 0.0
 -2.598978 -21.489414 0.0
 -1.732652 -20.989241 0.0
 0.0 -20.989241 0.0
 -0.866326 -19.48872 0.0
 0.866326 -19.48872 0.0
 0.0 -19.988894 0.0
 -27.722431 -2.982994 0.0
 -28.588757 -1.482473 0.0
 -26.856105 -1.482473 0.0
 -27.722431 -1.982647 0.0
 -29.455083 0.018048 0.0
 -30.321409 1.518568 0.0
 -28.588757 1.518568 0.0
 -29.455083 1.018395 0.0
 -25.989779 0.018048 0.0
 -26.856105 1.518568 0.0
 -25.123453 1.518568 0.0
 -25.989779 1.018395 0.0
 -27.722431 1.018395 0.0
 -26.856105 -0.482126 0.0
 -28.588757 -0.482126 0.0
 -27.722431 0.018048 0.0
 -31.187735 3.019089 0.0
 -32.054061 4.519609 0.0
 -30.321409 4.519609 0.0
 -31.187735 4.019436 0.0
 -32.920387 6.02013 0.0
 -33.786713 7.520651 0.0
 -32.054061 7.520651 0.0
 -32.920387 7.020477 0.0
 -29.455083 6.02013 0.0
 -30.321409 7.520651 0.0
 -28.588757 7.520651 0.0
 -29.455083 7.020477 0.0
 -31.187735 7.020477 0.0
 -30.321409 5.519956 0.0
 -32.054061 5.519956 0.0
 -31.187735 6.02013 0.0
 -24.257127 3.019089 0.0
 -25.123453 4.519609 0.0
 -23.390801 4.519609 0.0
 -24.257127 4.019436 0.0
 -25.989779 6.02013 0.0
 -26.856105 7.520651 0.0
 -25.123453 7.520651 0.0
 -25.989779 7.020477 0.0
 -22.524475 6.02013 0.0
 -23.390801 7.520651 0.0
 -21.658149 7.520651 0.0
 -22.524475 7.020477 0.0
 -24.257127 7.020477 0.0
 -23.390801 5.519956 0.0
 -25.123453 5.519956 0.0
 -24.257127 6.02013 0.0
 -27.722431 7.020477 0.0
 -26.856105 5.519956 0.0
 -28.588757 5.519956 0.0
 -27.722431 6.02013 0.0
 -25.989779 4.019436 0.0
 -25.123453 2.518915 0.0
 -26.856105 2.518915 0.0
 -25.989779 3.019089 0.0
 -29.455083 4.019436 0.0
 -28.588757 2.518915 0.0
 -30.321409 2.518915 0.0
 -29.455083 3.019089 0.0
 -27.722431 3.019089 0.0
 -28.588757 4.519609 0.0
 -26.856105 4.519609 0.0
 -27.722431 4.019436 0.0
 -34.653039 9.021171 0.0
 -35.519365 10.521692 0.0
 -33.786713 10.521692 0.0
 -34.653039 10.021518 0.0
 -36.385691 12.022212 0.0
 -37.252017 13.522733 0.0
 -35.519365 13.522733 0.0
 -36.385691 13.022559 0.0
 -32.920387 12.022212 0.0
 -33.786713 13.522733 0.0
 -32.054061 13.522733 0.0
 -32.920387 13.022559 0.0
 -34.653039 13.022559 0.0
 -33.786713 11.522039 0.0
 -35.519365 11.522039 0.0
 -34.653039 12.022212 0.0
 -38.118343 15.023254 0.0
 -38.984668 16.523774 0.0
 -37.252017 16.523774 0.0
 -38.118343 16.023601 0.0
 -39.850993 18.024295 0.0
 -40.717314 19.524815 0.0
 -38.984668 19.524815 0.0
 -39.850992 19.024642 0.0
 -36.385691 18.024295 0.0
 -37.252017 19.524815 0.0
 -35.519365 19.524815 0.0
 -36.385691 19.024642 0.0
 -38.118343 19.024642 0.0
 -37.252017 17.524121 0.0
 -38.984668 17.524121 0.0
 -38.118343 18.024295 0.0
 -31.187735 15.023254 0.0
 -32.054061 16.523774 0.0
 -30.321409 16.523774 0.0
 -31.187735 16.023601 0.0
 -32.920387 18.024295 0.0
 -33.786713 19.524815 0.0
 -32.054061 19.524815 0.0
 -32.920387 19.024642 0.0
 -29.455083 18.024295 0.0
 -30.321409 19.524815 0.0
 -28.588757 19.524815 0.0
 -29.455083 19.024642 0.0
 -31.187735 19.024642 0.0
 -30.321409 17.524121 0.0
 -32.054061 17.524121 0.0
 -31.187735 18.024295 0.0
 -34.653039 19.024642 0.0
 -33.786713 17.524121 0.0
 -35.519365 17.524121 0.0
 -34.653039 18.024295 0.0
 -32.920387 16.023601 0.0
 -32.054061 14.52308 0.0
 -33.786713 14.52308 0.0
 -32.920387 15.023254 0.0
 -36.385691 16.023601 0.0
 -35.519365 14.52308 0.0
 -37.252017 14.52308 0.0
 -36.385691 15.023254 0.0
 -34.653039 15.023254 0.0
 -35.519365 16.523774 0.0
 -33.786713 16.523774 0.0
 -34.653039 16.023601 0.0
 -20.791823 9.021171 0.0
 -21.658149 10.521692 0.0
 -19.925497 10.521692 0.0
 -20.791823 10.021518 0.0
 -22.524475 12.022212 0.0
 -23.390801 13.522733 0.0
 -21.658149 13.522733 0.0
 -22.524475 13.022559 0.0
 -19.059171 12.022212 0.0
 -19.925497 13.522733 0.0
 -18.192845 13.522733 0.0
 -19.059171 13.022559 0.0
 -20.791823 13.022559 0.0
 -19.925497 11.522039 0.0
 -21.658149 11.522039 0.0
 -20.791823 12.022212 0.0
 -24.257127 15.023254 0.0
 -25.123453 16.523774 0.0
 -23.390801 16.523774 0.0
 -24.257127 16.023601 0.0
 -25.989779 18.024295 0.0
 -26.856105 19.524815 0.0
 -25.123453 19.524815 0.0
 -25.989779 19.024642 0.0
 -22.524475 18.024295 0.0
 -23.390801 19.524815 0.0
 -21.658149 19.524815 0.0
 -22.524475 19.024642 0.0
 -24.257127 19.024642 0.0
 -23.390801 17.524121 0.0
 -25.123453 17.524121 0.0
 -24.257127 18.024295 0.0
 -17.326519 15.023254 0.0
 -18.192845 16.523774 0.0
 -16.460194 16.523774 0.0
 -17.326519 16.023601 0.0
 -19.059171 18.024295 0.0
 -19.925497 19.524815 0.0
 -18.192845 19.524815 0.0
 -19.059171 19.024642 0.0
 -15.593868 18.024295 0.0
 -16.460194 19.524815 0.0
 -14.727542 19.524815 0.0
 -15.593868 19.024642 0.0
 -17.326519 19.024642 0.0
 -16.460194 17.524121 0.0
 -18.192845 17.524121 0.0
 -17.326519 18.024295 0.0
 -20.791823 19.024642 0.0
 -19.925497 17.524121 0.0
 -21.658149 17.524121 0.0
 -20.791823 18.024295 0.0
 -19.059171 16.023601 0.0
 -18.192845 14.52308 0.0
 -19.925497 14.52308 0.0
 -19.059171 15.023254 0.0
 -22.524475 16.023601 0.0
 -21.658149 14.52308 0.0
 -23.390801 14.52308 0.0
 -22.524475 15.023254 0.0
 -20.791823 15.023254 0.0
 -21.658149 16.523774 0.0
 -19.925497 16.523774 0.0
 -20.791823 16.023601 0.0
 -27.722431 19.024642 0.0
 -26.856105 17.524121 0.0
 -28.588757 17.524121 0.0
 -27.722431 18.024295 0.0
 -25.989779 16.023601 0.0
 -25.123453 14.52308 0.0
 -26.856105 14.52308 0.0
 -25.989779 15.023254 0.0
 -29.455083 16.023601 0.0
 -28.588757 14.52308 0.0
 -30.321409 14.52308 0.0
 -29.455083 15.023254 0.0
 -27.722431 15.023254 0.0
 -28.588757 16.523774 0.0
 -26.856105 16.523774 0.0
 -27.722431 16.023601 0.0
 -24.257127 13.022559 0.0
 -23.390801 11.522039 0.0
 -25.123453 11.522039 0.0
 -24.257127 12.022212 0.0
 -22.524475 10.021518 0.0
 -21.658149 8.520998 0.0
 -23.390801 8.520998 0.0
 -22.524475 9.021171 0.0
 -25.989779 10.021518 0.0
 -25.123453 8.520998 0.0
 -26.856105 8.520998 0.0
 -25.989779 9.021171 0.0
 -24.257127 9.021171 0.0
 -25.123453 10.521692 0.0
 -23.390801 10.521692 0.0
 -24.257127 10.021518 0.0
 -31.187735 13.022559 0.0
 -30.321409 11.522039 0.0
 -32.054061 11.522039 0.0
 -31.187735 12.022212 0.0
 -29.455083 10.021518 0.0
 -28.588757 8.520998 0.0
 -30.321409 8.520998 0.0
 -29.455083 9.021171 0.0
 -32.920387 10.021518 0.0
 -32.054061 8.520998 0.0
 -33.786713 8.520998 0.0
 -32.920387 9.021171 0.0
 -31.187735 9.021171 0.0
 -32.054061 10.521692 0.0
 -30.321409 10.521692 0.0
 -31.187735 10.021518 0.0
 -27.722431 9.021171 0.0
 -28.588757 10.521692 0.0
 -26.856105 10.521692 0.0
 -27.722431 10.021518 0.0
 -29.455083 12.022212 0.0
 -30.321409 13.522733 0.0
 -28.588757 13.522733 0.0
 -29.455083 13.022559 0.0
 -25.989779 12.022212 0.0
 -26.856105 13.522733 0.0
 -25.123453 13.522733 0.0
 -25.989779 13.022559 0.0
 -27.722431 13.022559 0.0
 -26.856105 11.522039 0.0
 -28.588757 11.522039 0.0
 -27.722431 12.022212 0.0
 -41.583619 21.025324 0.0
 -42.44992 22.525828 0.0
 -40.717312 22.525853 0.0
 -41.583617 22.025669 0.0
 -43.315999 24.026395 0.0
 -44.181305 25.526868 0.0
 -42.449813 25.526893 0.0
 -43.315898 25.026752 0.0
 -39.850991 24.026377 0.0
 -40.717315 25.526897 0.0
 -38.984668 25.526898 0.0
 -39.85099 25.026724 0.0
 -41.583612 25.026725 0.0
 -40.717311 23.526201 0.0
 -42.449911 23.526186 0.0
 -41.583608 24.026376 0.0
 -45.045272 27.026172 0.0
 -45.912537 28.525834 0.0
 -44.18195 28.527614 0.0
 -45.045888 28.026382 0.0
 -46.75778 30.034604 0.0
 -47.564098 31.53203 0.0
 -45.900692 31.528934 0.0
 -46.747069 31.035309 0.0
 -43.315824 30.028484 0.0
 -44.181189 31.528877 0.0
 -42.449776 31.528965 0.0
 -43.315673 31.028821 0.0
 -45.044668 31.029277 0.0
 -44.181864 29.528114 0.0
 -45.911928 29.527804 0.0
 -45.045193 30.028851 0.0
 -38.118343 27.027418 0.0
 -38.984669 28.527939 0.0
 -37.252017 28.527939 0.0
 -38.118343 28.027765 0.0
 -39.850989 30.02846 0.0
 -40.717311 31.528979 0.0
 -38.984667 31.52898 0.0
 -39.850988 31.028807 0.0
 -36.385691 30.02846 0.0
 -37.252017 31.52898 0.0
 -35.519365 31.52898 0.0
 -36.385691 31.028807 0.0
 -38.118342 31.028807 0.0
 -37.252017 29.528286 0.0
 -38.984668 29.528286 0.0
 -38.118342 30.02846 0.0
 -41.583592 31.028807 0.0
 -40.71731 29.528286 0.0
 -42.449925 29.528282 0.0
 -41.583591 30.028461 0.0
 -39.850994 28.027765 0.0
 -38.984668 26.527245 0.0
 -40.717317 26.527244 0.0
 -39.850993 27.027418 0.0
 -43.315907 28.027621 0.0
 -42.449794 26.527225 0.0
 -44.181203 26.527058 0.0
 -43.315776 27.027274 0.0
 -41.583595 27.027404 0.0
 -42.449922 28.527919 0.0
 -40.717314 28.527938 0.0
 -41.583592 28.027751 0.0
 -48.295883 32.948795 0.0
 -47.645385 34.514674 0.0
 -48.368022 33.947369 0.0
 -49.524599 35.005398 0.0
 -49.649615 36.901454 0.0
 -49.101001 38.449276 0.0
 -49.102089 37.57534 0.0
 -46.755893 36.037231 0.0
 -47.561508 37.533983 0.0
 -45.899746 37.530991 0.0
 -46.744204 37.037648 0.0
 -48.29521 37.092276 0.0
 -47.645322 35.531744 0.0
 -49.174214 35.906852 0.0
 -48.367335 36.090454 0.0
 -49.524465 41.006951 0.0
 -49.650175 42.901865 0.0
 -49.099619 44.449368 0.0
 -49.102309 43.576073 0.0
 -45.044542 39.03015 0.0
 -45.912039 40.529722 0.0
 -44.181807 40.531736 0.0
 -45.045128 40.030414 0.0
 -46.755022 42.038467 0.0
 -47.561557 43.534089 0.0
 -45.899793 43.530989 0.0
 -46.743988 43.037858 0.0
 -43.315957 42.032425 0.0
 -44.18234 43.531861 0.0
 -42.451425 43.532315 0.0
 -43.31687 43.032169 0.0
 -45.043896 43.032678 0.0
 -44.181786 41.532124 0.0
 -45.911186 41.531605 0.0
 -45.044254 42.032685 0.0
 -48.295394 43.093478 0.0
 -47.644923 41.534106 0.0
 -49.17464 41.908815 0.0
 -48.367725 42.092887 0.0
 -46.756618 40.020006 0.0
 -45.899992 38.529535 0.0
 -47.562216 38.517874 0.0
 -46.745157 39.020083 0.0
 -49.172991 40.115674 0.0
 -49.648526 39.108724 0.0
 -48.29483 38.950103 0.0
 -47.645667 40.517528 0.0
 -48.36682 39.949835 0.0
 -34.653039 33.029501 0.0
 -35.519365 34.530021 0.0
 -33.786713 34.530021 0.0
 -34.653039 34.029848 0.0
 -36.385691 36.030542 0.0
 -37.252017 37.531063 0.0
 -35.519365 37.531063 0.0
 -36.385691 37.030889 0.0
 -32.920387 36.030542 0.0
 -33.786713 37.531063 0.0
 -32.054061 37.531063 0.0
 -32.920387 37.030889 0.0
 -34.653039 37.030889 0.0
 -33.786713 35.530369 0.0
 -35.519365 35.530369 0.0
 -34.653039 36.030542 0.0
 -38.118342 39.031583 0.0
 -38.984668 40.532102 0.0
 -37.252012 40.532102 0.0
 -38.118341 40.031929 0.0
 -39.851108 42.032566 0.0
 -40.718145 43.532853 0.0
 -38.984877 43.532948 0.0
 -39.851397 43.032787 0.0
 -36.385451 42.032545 0.0
 -37.251006 43.532861 0.0
 -35.517937 43.532667 0.0
 -36.384645 43.032687 0.0
 -38.118167 43.032873 0.0
 -37.251918 41.53242 0.0
 -38.984695 41.532427 0.0
 -38.118274 42.032572 0.0
 -31.187736 39.031582 0.0
 -32.054065 40.532098 0.0
 -30.321418 40.5321 0.0
 -31.187739 40.031927 0.0
 -32.920303 42.032375 0.0
 -33.785899 43.53197 0.0
 -32.054138 43.53188 0.0
 -32.920052 43.031889 0.0
 -29.455371 42.03248 0.0
 -30.322808 43.532359 0.0
 -28.590188 43.532623 0.0
 -29.456305 43.032427 0.0
 -31.188197 43.032456 0.0
 -30.321552 41.532361 0.0
 -32.054067 41.532315 0.0
 -31.187876 42.032406 0.0
 -34.652332 43.032584 0.0
 -33.786603 41.532314 0.0
 -35.519195 41.532384 0.0
 -34.652785 42.032442 0.0
 -32.920386 40.031925 0.0
 -32.054061 38.531409 0.0
 -33.786711 38.531408 0.0
 -32.920385 39.031581 0.0
 -36.385685 40.031927 0.0
 -35.519362 38.531408 0.0
 -37.252016 38.53141 0.0
 -36.385688 39.031581 0.0
 -34.653034 39.031579 0.0
 -35.519335 40.532083 0.0
 -33.786688 40.532081 0.0
 -34.65301 40.031909 0.0
 -41.584277 43.032718 0.0
 -40.717425 41.532401 0.0
 -42.450082 41.53234 0.0
 -41.583846 42.032486 0.0
 -39.850997 40.031928 0.0
 -38.984668 38.531409 0.0
 -40.717318 38.531408 0.0
 -39.850995 39.031581 0.0
 -43.315839 40.031761 0.0
 -42.44977 38.531364 0.0
 -44.181069 38.531105 0.0
 -43.315687 39.031395 0.0
 -41.583601 39.031564 0.0
 -42.449943 40.532064 0.0
 -40.71734 40.532088 0.0
 -41.583622 40.031897 0.0
 -38.118343 37.030889 0.0
 -37.252017 35.530369 0.0
 -38.984668 35.530368 0.0
 -38.118343 36.030542 0.0
 -36.385691 34.029848 0.0
 -35.519365 32.529327 0.0
 -37.252017 32.529327 0.0
 -36.385691 33.029501 0.0
 -39.850993 34.029847 0.0
 -38.984668 32.529327 0.0
 -40.717315 32.529325 0.0
 -39.850992 33.0295 0.0
 -38.118343 33.029501 0.0
 -38.984668 34.530021 0.0
 -37.252017 34.530021 0.0
 -38.118343 34.029848 0.0
 -45.044251 37.031454 0.0
 -44.181747 35.530345 0.0
 -45.912013 35.530294 0.0
 -45.044829 36.031174 0.0
 -43.31599 34.029741 0.0
 -42.449794 32.529302 0.0
 -44.181351 32.529107 0.0
 -43.315854 33.029388 0.0
 -46.755372 34.017824 0.0
 -45.899847 32.52738 0.0
 -47.562111 32.51592 0.0
 -46.744237 33.017644 0.0
 -45.043986 33.027953 0.0
 -45.911429 34.527957 0.0
 -44.181934 34.529857 0.0
 -45.044432 34.028349 0.0
 -41.583614 33.02949 0.0
 -42.449929 34.530002 0.0
 -40.717314 34.530019 0.0
 -41.583613 34.029837 0.0
 -43.315765 36.030586 0.0
 -44.181024 37.530953 0.0
 -42.449748 37.531036 0.0
 -43.31562 37.030914 0.0
 -39.850987 36.030542 0.0
 -40.71731 37.531062 0.0
 -38.984668 37.531062 0.0
 -39.850987 37.030889 0.0
 -41.583571 37.030891 0.0
 -40.717308 35.530367 0.0
 -42.449891 35.53036 0.0
 -41.583569 36.030542 0.0
 -13.861216 21.025336 0.0
 -14.727542 22.525857 0.0
 -12.99489 22.525857 0.0
 -13.861216 22.025683 0.0
 -15.593868 24.026377 0.0
 -16.460194 25.526898 0.0
 -14.727542 25.526898 0.0
 -15.593868 25.026724 0.0
 -12.128564 24.026377 0.0
 -12.99489 25.526898 0.0
 -11.262238 25.526898 0.0
 -12.128564 25.026724 0.0
 -13.861216 25.026724 0.0
 -12.99489 23.526204 0.0
 -14.727542 23.526204 0.0
 -13.861216 24.026377 0.0
 -17.326519 27.027418 0.0
 -18.192845 28.527939 0.0
 -16.460194 28.527939 0.0
 -17.326519 28.027766 0.0
 -19.059171 30.02846 0.0
 -19.925497 31.52898 0.0
 -18.192845 31.52898 0.0
 -19.059171 31.028807 0.0
 -15.593868 30.02846 0.0
 -16.460194 31.52898 0.0
 -14.727542 31.52898 0.0
 -15.593868 31.028807 0.0
 -17.326519 31.028807 0.0
 -16.460194 29.528286 0.0
 -18.192845 29.528286 0.0
 -17.326519 30.02846 0.0
 -10.395912 27.027418 0.0
 -11.262238 28.527939 0.0
 -9.529586 28.527939 0.0
 -10.395912 28.027766 0.0
 -12.128564 30.02846 0.0
 -12.99489 31.52898 0.0
 -11.262238 31.52898 0.0
 -12.128564 31.028807 0.0
 -8.66326 30.02846 0.0
 -9.529586 31.52898 0.0
 -7.796934 31.52898 0.0
 -8.66326 31.028807 0.0
 -10.395912 31.028807 0.0
 -9.529586 29.528286 0.0
 -11.262238 29.528286 0.0
 -10.395912 30.02846 0.0
 -13.861216 31.028807 0.0
 -12.99489 29.528286 0.0
 -14.727542 29.528286 0.0
 -13.861216 30.02846 0.0
 -12.128564 28.027766 0.0
 -11.262238 26.527245 0.0
 -12.99489 26.527245 0.0
 -12.128564 27.027418 0.0
 -15.593868 28.027766 0.0
 -14.727542 26.527245 0.0
 -16.460194 26.527245 0.0
 -15.593868 27.027418 0.0
 -13.861216 27.027418 0.0
 -14.727542 28.527939 0.0
 -12.99489 28.527939 0.0
 -13.861216 28.027766 0.0
 -20.791823 33.029501 0.0
 -21.658149 34.530021 0.0
 -19.925497 34.530021 0.0
 -20.791823 34.029848 0.0
 -22.524475 36.030542 0.0
 -23.390801 37.531063 0.0
 -21.658149 37.531063 0.0
 -22.524475 37.030889 0.0
 -19.059171 36.030542 0.0
 -19.925497 37.531063 0.0
 -18.192846 37.531063 0.0
 -19.059171 37.030889 0.0
 -20.791823 37.030889 0.0
 -19.925497 35.530369 0.0
 -21.658149 35.530369 0.0
 -20.791823 36.030542 0.0
 -24.257127 39.031583 0.0
 -25.123451 40.532102 0.0
 -23.390795 40.5321 0.0
 -24.257124 40.031929 0.0
 -25.989798 42.032578 0.0
 -26.856452 43.53294 0.0
 -25.123141 43.532946 0.0
 -25.989756 43.032808 0.0
 -22.524235 42.032455 0.0
 -23.389631 43.532556 0.0
 -21.65696 43.532059 0.0
 -22.523426 43.032335 0.0
 -24.256743 43.032831 0.0
 -23.390681 41.532389 0.0
 -25.123424 41.532428 0.0
 -24.256984 42.032543 0.0
 -17.326521 39.031582 0.0
 -18.192851 40.532095 0.0
 -16.4602 40.532098 0.0
 -17.326524 40.031926 0.0
 -19.059305 42.032306 0.0
 -19.925864 43.53152 0.0
 -18.193953 43.531755 0.0
 -19.059899 43.031705 0.0
 -15.59414 42.032512 0.0
 -16.461626 43.532541 0.0
 -14.728717 43.532799 0.0
 -15.59502 43.032617 0.0
 -17.327176 43.032463 0.0
 -16.460345 41.532375 0.0
 -18.192957 41.532295 0.0
 -17.326775 42.032402 0.0
 -20.791471 43.03219 0.0
 -19.925513 41.532252 0.0
 -21.658013 41.532311 0.0
 -20.791715 42.032321 0.0
 -19.059173 40.031922 0.0
 -18.192846 38.531409 0.0
 -19.925497 38.531406 0.0
 -19.059171 39.031579 0.0
 -22.52447 40.031924 0.0
 -21.658148 38.531406 0.0
 -23.390801 38.531409 0.0
 -22.524473 39.031579 0.0
 -20.791821 39.031576 0.0
 -21.658134 40.532069 0.0
 -19.925488 40.532067 0.0
 -20.791811 40.031895 0.0
 -6.930608 33.029501 0.0
 -7.796934 34.530021 0.0
 -6.064282 34.530021 0.0
 -6.930608 34.029848 0.0
 -8.66326 36.030542 0.0
 -9.529586 37.531063 0.0
 -7.796934 37.531063 0.0
 -8.66326 37.030889 0.0
 -5.197956 36.030542 0.0
 -6.064282 37.531063 0.0
 -4.33163 37.531063 0.0
 -5.197956 37.030889 0.0
 -6.930608 37.030889 0.0
 -6.064282 35.530369 0.0
 -7.796934 35.530369 0.0
 -6.930608 36.030542 0.0
 -10.395911 39.031583 0.0
 -11.262232 40.532101 0.0
 -9.529578 40.532099 0.0
 -10.395907 40.031928 0.0
 -12.128469 42.032571 0.0
 -12.994654 43.532923 0.0
 -11.261413 43.532882 0.0
 -12.128078 43.032785 0.0
 -8.662957 42.032423 0.0
 -9.528069 43.532408 0.0
 -7.79551 43.531914 0.0
 -8.661947 43.032211 0.0
 -10.395328 43.032769 0.0
 -9.529427 41.532373 0.0
 -11.262152 41.532421 0.0
 -10.395677 42.032521 0.0
 -3.465305 39.031582 0.0
 -4.331636 40.532097 0.0
 -2.598984 40.532101 0.0
 -3.465308 40.031927 0.0
 -5.198061 42.032329 0.0
 -6.064503 43.531555 0.0
 -4.332583 43.531944 0.0
 -5.198532 43.031797 0.0
 -1.732842 42.032544 0.0
 -2.60008 43.532729 0.0
 -0.867004 43.532889 0.0
 -1.733441 43.032716 0.0
 -3.465897 43.032603 0.0
 -2.599097 41.532397 0.0
 -4.331728 41.532316 0.0
 -3.465513 42.032443 0.0
 -6.930208 43.03214 0.0
 -6.06428 41.532254 0.0
 -7.796769 41.532293 0.0
 -6.930456 42.032307 0.0
 -5.197957 40.031922 0.0
 -4.33163 38.531409 0.0
 -6.064281 38.531406 0.0
 -5.197955 39.031579 0.0
 -8.663253 40.031923 0.0
 -7.796932 38.531406 0.0
 -9.529585 38.531409 0.0
 -8.663257 39.031579 0.0
 -6.930605 39.031576 0.0
 -7.796914 40.532067 0.0
 -6.064269 40.532066 0.0
 -6.930591 40.031893 0.0
 -13.861496 43.032845 0.0
 -12.994887 41.532419 0.0
 -14.72768 41.532403 0.0
 -13.861339 42.032553 0.0
 -12.128563 40.031929 0.0
 -11.262237 38.531409 0.0
 -12.994891 38.531409 0.0
 -12.128564 39.031582 0.0
 -15.593873 40.031927 0.0
 -14.727543 38.531409 0.0
 -16.460194 38.531409 0.0
 -15.59387 39.031582 0.0
 -13.861218 39.031582 0.0
 -14.727558 40.532095 0.0
 -12.9949 40.532096 0.0
 -13.86123 40.031922 0.0
 -10.395912 37.030889 0.0
 -9.529586 35.530369 0.0
 -11.262238 35.530369 0.0
 -10.395912 36.030542 0.0
 -8.66326 34.029848 0.0
 -7.796934 32.529327 0.0
 -9.529586 32.529327 0.0
 -8.66326 33.029501 0.0
 -12.128564 34.029848 0.0
 -11.262238 32.529327 0.0
 -12.99489 32.529327 0.0
 -12.128564 33.029501 0.0
 -10.395912 33.029501 0.0
 -11.262238 34.530021 0.0
 -9.529586 34.530021 0.0
 -10.395912 34.029848 0.0
 -17.32652 37.030889 0.0
 -16.460194 35.530369 0.0
 -18.192845 35.530369 0.0
 -17.32652 36.030542 0.0
 -15.593868 34.029848 0.0
 -14.727542 32.529327 0.0
 -16.460194 32.529327 0.0
 -15.593868 33.029501 0.0
 -19.059171 34.029848 0.0
 -18.192845 32.529327 0.0
 -19.925497 32.529327 0.0
 -19.059171 33.029501 0.0
 -17.326519 33.029501 0.0
 -18.192845 34.530021 0.0
 -16.460194 34.530021 0.0
 -17.326519 34.029848 0.0
 -13.861216 33.029501 0.0
 -14.727542 34.530021 0.0
 -12.99489 34.530021 0.0
 -13.861216 34.029848 0.0
 -15.593868 36.030542 0.0
 -16.460194 37.531062 0.0
 -14.727542 37.531063 0.0
 -15.593868 37.030889 0.0
 -12.128564 36.030542 0.0
 -12.99489 37.531063 0.0
 -11.262238 37.531063 0.0
 -12.128564 37.030889 0.0
 -13.861216 37.030889 0.0
 -12.99489 35.530369 0.0
 -14.727542 35.530369 0.0
 -13.861216 36.030542 0.0
 -27.722968 43.032826 0.0
 -26.856171 41.532417 0.0
 -28.58893 41.532384 0.0
 -27.722645 42.032534 0.0
 -25.989781 40.031929 0.0
 -25.123453 38.531409 0.0
 -26.856107 38.531409 0.0
 -25.989781 39.031582 0.0
 -29.455091 40.031927 0.0
 -28.58876 38.531408 0.0
 -30.32141 38.531409 0.0
 -29.455087 39.031582 0.0
 -27.722436 39.031581 0.0
 -28.588785 40.532093 0.0
 -26.856127 40.532094 0.0
 -27.722456 40.03192 0.0
 -24.257127 37.030889 0.0
 -23.390801 35.530369 0.0
 -25.123453 35.530369 0.0
 -24.257127 36.030542 0.0
 -22.524475 34.029848 0.0
 -21.658149 32.529327 0.0
 -23.390801 32.529327 0.0
 -22.524475 33.029501 0.0
 -25.989779 34.029848 0.0
 -25.123453 32.529327 0.0
 -26.856105 32.529327 0.0
 -25.989779 33.029501 0.0
 -24.257127 33.029501 0.0
 -25.123453 34.530021 0.0
 -23.390801 34.530021 0.0
 -24.257127 34.029848 0.0
 -31.187735 37.030889 0.0
 -30.321409 35.530369 0.0
 -32.054061 35.530369 0.0
 -31.187735 36.030542 0.0
 -29.455083 34.029848 0.0
 -28.588757 32.529327 0.0
 -30.321409 32.529327 0.0
 -29.455083 33.029501 0.0
 -32.920387 34.029848 0.0
 -32.054061 32.529327 0.0
 -33.786713 32.529327 0.0
 -32.920387 33.029501 0.0
 -31.187735 33.029501 0.0
 -32.054061 34.530021 0.0
 -30.321409 34.530021 0.0
 -31.187735 34.029848 0.0
 -27.722431 33.029501 0.0
 -28.588757 34.530021 0.0
 -26.856105 34.530021 0.0
 -27.722431 34.029848 0.0
 -29.455083 36.030542 0.0
 -30.32141 37.531062 0.0
 -28.588758 37.531063 0.0
 -29.455084 37.030889 0.0
 -25.989779 36.030542 0.0
 -26.856105 37.531063 0.0
 -25.123453 37.531063 0.0
 -25.989779 37.030889 0.0
 -27.722431 37.030889 0.0
 -26.856105 35.530369 0.0
 -28.588757 35.530369 0.0
 -27.722431 36.030542 0.0
 -20.791823 31.028807 0.0
 -19.925497 29.528286 0.0
 -21.658149 29.528286 0.0
 -20.791823 30.02846 0.0
 -19.059171 28.027766 0.0
 -18.192845 26.527245 0.0
 -19.925497 26.527245 0.0
 -19.059171 27.027418 0.0
 -22.524475 28.027766 0.0
 -21.658149 26.527245 0.0
 -23.390801 26.527245 0.0
 -22.524475 27.027418 0.0
 -20.791823 27.027418 0.0
 -21.658149 28.527939 0.0
 -19.925497 28.527939 0.0
 -20.791823 28.027766 0.0
 -17.326519 25.026724 0.0
 -16.460194 23.526204 0.0
 -18.192845 23.526204 0.0
 -17.326519 24.026377 0.0
 -15.593868 22.025683 0.0
 -14.727542 20.525163 0.0
 -16.460194 20.525163 0.0
 -15.593868 21.025336 0.0
 -19.059171 22.025683 0.0
 -18.192845 20.525163 0.0
 -19.925497 20.525163 0.0
 -19.059171 21.025336 0.0
 -17.326519 21.025336 0.0
 -18.192845 22.525857 0.0
 -16.460194 22.525857 0.0
 -17.326519 22.025683 0.0
 -24.257127 25.026724 0.0
 -23.390801 23.526204 0.0
 -25.123453 23.526204 0.0
 -24.257127 24.026377 0.0
 -22.524475 22.025683 0.0
 -21.658149 20.525163 0.0
 -23.390801 20.525163 0.0
 -22.524475 21.025336 0.0
 -25.989779 22.025683 0.0
 -25.123453 20.525163 0.0
 -26.856105 20.525163 0.0
 -25.989779 21.025336 0.0
 -24.257127 21.025336 0.0
 -25.123453 22.525857 0.0
 -23.390801 22.525857 0.0
 -24.257127 22.025683 0.0
 -20.791823 21.025336 0.0
 -21.658149 22.525857 0.0
 -19.925497 22.525857 0.0
 -20.791823 22.025683 0.0
 -22.524475 24.026377 0.0
 -23.390801 25.526898 0.0
 -21.658149 25.526898 0.0
 -22.524475 25.026724 0.0
 -19.059171 24.026377 0.0
 -19.925497 25.526898 0.0
 -18.192845 25.526898 0.0
 -19.059171 25.026724 0.0
 -20.791823 25.026724 0.0
 -19.925497 23.526204 0.0
 -21.658149 23.526204 0.0
 -20.791823 24.026377 0.0
 -34.653039 31.028807 0.0
 -33.786713 29.528286 0.0
 -35.519365 29.528286 0.0
 -34.653039 30.02846 0.0
 -32.920387 28.027766 0.0
 -32.054061 26.527245 0.0
 -33.786713 26.527245 0.0
 -32.920387 27.027418 0.0
 -36.385691 28.027766 0.0
 -35.519365 26.527245 0.0
 -37.252017 26.527245 0.0
 -36.385691 27.027418 0.0
 -34.653039 27.027418 0.0
 -35.519365 28.527939 0.0
 -33.786713 28.527939 0.0
 -34.653039 28.027766 0.0
 -31.187735 25.026724 0.0
 -30.321409 23.526204 0.0
 -32.054061 23.526204 0.0
 -31.187735 24.026377 0.0
 -29.455083 22.025683 0.0
 -28.588757 20.525163 0.0
 -30.321409 20.525163 0.0
 -29.455083 21.025336 0.0
 -32.920387 22.025683 0.0
 -32.054061 20.525163 0.0
 -33.786713 20.525163 0.0
 -32.920387 21.025336 0.0
 -31.187735 21.025336 0.0
 -32.054061 22.525857 0.0
 -30.321409 22.525857 0.0
 -31.187735 22.025683 0.0
 -38.118342 25.026724 0.0
 -37.252017 23.526204 0.0
 -38.984668 23.526204 0.0
 -38.118342 24.026377 0.0
 -36.385691 22.025683 0.0
 -35.519365 20.525163 0.0
 -37.252017 20.525163 0.0
 -36.385691 21.025336 0.0
 -39.850992 22.025682 0.0
 -38.984668 20.525162 0.0
 -40.717313 20.525161 0.0
 -39.850991 21.025335 0.0
 -38.118343 21.025336 0.0
 -38.984668 22.525857 0.0
 -37.252017 22.525857 0.0
 -38.118342 22.025683 0.0
 -34.653039 21.025336 0.0
 -35.519365 22.525857 0.0
 -33.786713 22.525857 0.0
 -34.653039 22.025683 0.0
 -36.385691 24.026377 0.0
 -37.252017 25.526898 0.0
 -35.519365 25.526898 0.0
 -36.385691 25.026724 0.0
 -32.920387 24.026377 0.0
 -33.786713 25.526898 0.0
 -32.054061 25.526898 0.0
 -32.920387 25.026724 0.0
 -34.653039 25.026724 0.0
 -33.786713 23.526204 0.0
 -35.519365 23.526204 0.0
 -34.653039 24.026377 0.0
 -27.722431 21.025336 0.0
 -28.588757 22.525857 0.0
 -26.856105 22.525857 0.0
 -27.722431 22.025683 0.0
 -29.455083 24.026377 0.0
 -30.321409 25.526898 0.0
 -28.588757 25.526898 0.0
 -29.455083 25.026724 0.0
 -25.989779 24.026377 0.0
 -26.856105 25.526898 0.0
 -25.123453 25.526898 0.0
 -25.989779 25.026724 0.0
 -27.722431 25.026724 0.0
 -26.856105 23.526204 0.0
 -28.588757 23.526204 0.0
 -27.722431 24.026377 0.0
 -31.187735 27.027418 0.0
 -32.054061 28.527939 0.0
 -30.321409 28.527939 0.0
 -31.187735 28.027766 0.0
 -32.920387 30.02846 0.0
 -33.786713 31.52898 0.0
 -32.054061 31.52898 0.0
 -32.920387 31.028807 0.0
 -29.455083 30.02846 0.0
 -30.321409 31.52898 0.0
 -28.588757 31.52898 0.0
 -29.455083 31.028807 0.0
 -31.187735 31.028807 0.0
 -30.321409 29.528286 0.0
 -32.054061 29.528286 0.0
 -31.187735 30.02846 0.0
 -24.257127 27.027418 0.0
 -25.123453 28.527939 0.0
 -23.390801 28.527939 0.0
 -24.257127 28.027766 0.0
 -25.989779 30.02846 0.0
 -26.856105 31.52898 0.0
 -25.123453 31.52898 0.0
 -25.989779 31.028807 0.0
 -22.524475 30.02846 0.0
 -23.390801 31.52898 0.0
 -21.658149 31.52898 0.0
 -22.524475 31.028807 0.0
 -24.257127 31.028807 0.0
 -23.390801 29.528286 0.0
 -25.123453 29.528286 0.0
 -24.257127 30.02846 0.0
 -27.722431 31.028807 0.0
 -26.856105 29.528286 0.0
 -28.588757 29.528286 0.0
 -27.722431 30.02846 0.0
 -25.989779 28.027766 0.0
 -25.123453 26.527245 0.0
 -26.856105 26.527245 0.0
 -25.989779 27.027418 0.0
 -29.455083 28.027766 0.0
 -28.588757 26.527245 0.0
 -30.321409 26.527245 0.0
 -29.455083 27.027418 0.0
 -27.722431 27.027418 0.0
 -28.588757 28.527939 0.0
 -26.856105 28.527939 0.0
 -27.722431 28.027766 0.0
 27.722431 -2.982994 0.0
 26.856105 -1.482473 0.0
 28.588757 -1.482473 0.0
 27.722431 -1.982647 0.0
 25.989779 0.018048 0.0
 25.123453 1.518568 0.0
 26.856105 1.518568 0.0
 25.989779 1.018395 0.0
 29.455083 0.018048 0.0
 28.588757 1.518568 0.0
 30.321409 1.518568 0.0
 29.455083 1.018395 0.0
 27.722431 1.018395 0.0
 28.588757 -0.482126 0.0
 26.856105 -0.482126 0.0
 27.722431 0.018048 0.0
 24.257127 3.019089 0.0
 23.390801 4.519609 0.0
 25.123453 4.519609 0.0
 24.257127 4.019436 0.0
 22.524475 6.02013 0.0
 21.658149 7.520651 0.0
 23.390801 7.520651 0.0
 22.524475 7.020477 0.0
 25.989779 6.02013 0.0
 25.123453 7.520651 0.0
 26.856105 7.520651 0.0
 25.989779 7.020477 0.0
 24.257127 7.020477 0.0
 25.123453 5.519956 0.0
 23.390801 5.519956 0.0
 24.257127 6.02013 0.0
 31.187735 3.019089 0.0
 30.321409 4.519609 0.0
 32.054061 4.519609 0.0
 31.187735 4.019436 0.0
 29.455083 6.02013 0.0
 28.588757 7.520651 0.0
 30.321409 7.520651 0.0
 29.455083 7.020477 0.0
 32.920387 6.02013 0.0
 32.054061 7.520651 0.0
 33.786713 7.520651 0.0
 32.920387 7.020477 0.0
 31.187735 7.020477 0.0
 32.054061 5.519956 0.0
 30.321409 5.519956 0.0
 31.187735 6.02013 0.0
 27.722431 7.020477 0.0
 28.588757 5.519956 0.0
 26.856105 5.519956 0.0
 27.722431 6.02013 0.0
 29.455083 4.019436 0.0
 30.321409 2.518915 0.0
 28.588757 2.518915 0.0
 29.455083 3.019089 0.0
 25.989779 4.019436 0.0
 26.856105 2.518915 0.0
 25.123453 2.518915 0.0
 25.989779 3.019089 0.0
 27.722431 3.019089 0.0
 26.856105 4.519609 0.0
 28.588757 4.519609 0.0
 27.722431 4.019436 0.0
 20.791823 9.021171 0.0
 19.925497 10.521692 0.0
 21.658149 10.521692 0.0
 20.791823 10.021518 0.0
 19.059171 12.022212 0.0
 18.192845 13.522733 0.0
 19.925497 13.522733 0.0
 19.059171 13.022559 0.0
 22.524475 12.022212 0.0
 21.658149 13.522733 0.0
 23.390801 13.522733 0.0
 22.524475 13.022559 0.0
 20.791823 13.022559 0.0
 21.658149 11.522039 0.0
 19.925497 11.522039 0.0
 20.791823 12.022212 0.0
 17.326519 15.023254 0.0
 16.460194 16.523774 0.0
 18.192845 16.523774 0.0
 17.326519 16.023601 0.0
 15.593868 18.024295 0.0
 14.727542 19.524815 0.0
 16.460194 19.524815 0.0
 15.593868 19.024642 0.0
 19.059171 18.024295 0.0
 18.192845 19.524815 0.0
 19.925497 19.524815 0.0
 19.059171 19.024642 0.0
 17.326519 19.024642 0.0
 18.192845 17.524121 0.0
 16.460194 17.524121 0.0
 17.326519 18.024295 0.0
 24.257127 15.023254 0.0
 23.390801 16.523774 0.0
 25.123453 16.523774 0.0
 24.257127 16.023601 0.0
 22.524475 18.024295 0.0
 21.658149 19.524815 0.0
 23.390801 19.524815 0.0
 22.524475 19.024642 0.0
 25.989779 18.024295 0.0
 25.123453 19.524815 0.0
 26.856105 19.524815 0.0
 25.989779 19.024642 0.0
 24.257127 19.024642 0.0
 25.123453 17.524121 0.0
 23.390801 17.524121 0.0
 24.257127 18.024295 0.0
 20.791823 19.024642 0.0
 21.658149 17.524121 0.0
 19.925497 17.524121 0.0
 20.791823 18.024295 0.0
 22.524475 16.023601 0.0
 23.390801 14.52308 0.0
 21.658149 14.52308 0.0
 22.524475 15.023254 0.0
 19.059171 16.023601 0.0
 19.925497 14.52308 0.0
 18.192845 14.52308 0.0
 19.059171 15.023254 0.0
 20.791823 15.023254 0.0
 19.925497 16.523774 0.0
 21.658149 16.523774 0.0
 20.791823 16.023601 0.0
 34.653039 9.021171 0.0
 33.786713 10.521692 0.0
 35.519365 10.521692 0.0
 34.653039 10.021518 0.0
 32.920387 12.022212 0.0
 32.054061 13.522733 0.0
 33.786713 13.522733 0.0
 32.920387 13.022559 0.0
 36.385691 12.022212 0.0
 35.519365 13.522733 0.0
 37.252017 13.522733 0.0
 36.385691 13.022559 0.0
 34.653039 13.022559 0.0
 35.519365 11.522039 0.0
 33.786713 11.522039 0.0
 34.653039 12.022212 0.0
 31.187735 15.023254 0.0
 30.321409 16.523774 0.0
 32.054061 16.523774 0.0
 31.187735 16.023601 0.0
 29.455083 18.024295 0.0
 28.588757 19.524815 0.0
 30.321409 19.524815 0.0
 29.455083 19.024642 0.0
 32.920387 18.024295 0.0
 32.054061 19.524815 0.0
 33.786713 19.524815 0.0
 32.920387 19.024642 0.0
 31.187735 19.024642 0.0
 32.054061 17.524121 0.0
 30.321409 17.524121 0.0
 31.187735 18.024295 0.0
 38.118342 15.023254 0.0
 37.252017 16.523774 0.0
 38.984668 16.523774 0.0
 38.118342 16.023601 0.0
 36.385691 18.024295 0.0
 35.519365 19.524815 0.0
 37.252017 19.524815 0.0
 36.385691 19.024642 0.0
 39.85099 18.024295 0.0
 38.984667 19.524816 0.0
 40.71731 19.524816 0.0
 39.850989 19.024643 0.0
 38.118342 19.024642 0.0
 38.984668 17.524121 0.0
 37.252017 17.524121 0.0
 38.118342 18.024295 0.0
 34.653039 19.024642 0.0
 35.519365 17.524121 0.0
 33.786713 17.524121 0.0
 34.653039 18.024295 0.0
 36.385691 16.023601 0.0
 37.252017 14.52308 0.0
 35.519365 14.52308 0.0
 36.385691 15.023254 0.0
 32.920387 16.023601 0.0
 33.786713 14.52308 0.0
 32.054061 14.52308 0.0
 32.920387 15.023254 0.0
 34.653039 15.023254 0.0
 33.786713 16.523774 0.0
 35.519365 16.523774 0.0
 34.653039 16.023601 0.0
 27.722431 19.024642 0.0
 28.588757 17.524121 0.0
 26.856105 17.524121 0.0
 27.722431 18.024295 0.0
 29.455083 16.023601 0.0
 30.321409 14.52308 0.0
 28.588757 14.52308 0.0
 29.455083 15.023254 0.0
 25.989779 16.023601 0.0
 26.856105 14.52308 0.0
 25.123453 14.52308 0.0
 25.989779 15.023254 0.0
 27.722431 15.023254 0.0
 26.856105 16.523774 0.0
 28.588757 16.523774 0.0
 27.722431 16.023601 0.0
 31.187735 13.022559 0.0
 32.054061 11.522039 0.0
 30.321409 11.522039 0.0
 31.187735 12.022212 0.0
 32.920387 10.021518 0.0
 33.786713 8.520998 0.0
 32.054061 8.520998 0.0
 32.920387 9.021171 0.0
 29.455083 10.021518 0.0
 30.321409 8.520998 0.0
 28.588757 8.520998 0.0
 29.455083 9.021171 0.0
 31.187735 9.021171 0.0
 30.321409 10.521692 0.0
 32.054061 10.521692 0.0
 31.187735 10.021518 0.0
 24.257127 13.022559 0.0
 25.123453 11.522039 0.0
 23.390801 11.522039 0.0
 24.257127 12.022212 0.0
 25.989779 10.021518 0.0
 26.856105 8.520998 0.0
 25.123453 8.520998 0.0
 25.989779 9.021171 0.0
 22.524475 10.021518 0.0
 23.390801 8.520998 0.0
 21.658149 8.520998 0.0
 22.524475 9.021171 0.0
 24.257127 9.021171 0.0
 23.390801 10.521692 0.0
 25.123453 10.521692 0.0
 24.257127 10.021518 0.0
 27.722431 9.021171 0.0
 26.856105 10.521692 0.0
 28.588757 10.521692 0.0
 27.722431 10.021518 0.0
 25.989779 12.022212 0.0
 25.123453 13.522733 0.0
 26.856105 13.522733 0.0
 25.989779 13.022559 0.0
 29.455083 12.022212 0.0
 28.588757 13.522733 0.0
 30.321409 13.522733 0.0
 29.455083 13.022559 0.0
 27.722431 13.022559 0.0
 28.588757 11.522039 0.0
 26.856105 11.522039 0.0
 27.722431 12.022212 0.0
 13.861216 21.025336 0.0
 12.99489 22.525857 0.0
 14.727542 22.525857 0.0
 13.861216 22.025683 0.0
 12.128564 24.026377 0.0
 11.262238 25.526898 0.0
 12.99489 25.526898 0.0
 12.128564 25.026724 0.0
 15.593868 24.026377 0.0
 14.727542 25.526898 0.0
 16.460194 25.526898 0.0
 15.593868 25.026724 0.0
 13.861216 25.026724 0.0
 14.727542 23.526204 0.0
 12.99489 23.526204 0.0
 13.861216 24.026377 0.0
 10.395912 27.027418 0.0
 9.529586 28.527939 0.0
 11.262238 28.527939 0.0
 10.395912 28.027766 0.0
 8.66326 30.02846 0.0
 7.796934 31.52898 0.0
 9.529586 31.52898 0.0
 8.66326 31.028807 0.0
 12.128564 30.02846 0.0
 11.262238 31.52898 0.0
 12.99489 31.52898 0.0
 12.128564 31.028807 0.0
 10.395912 31.028807 0.0
 11.262238 29.528286 0.0
 9.529586 29.528286 0.0
 10.395912 30.02846 0.0
 17.326519 27.027418 0.0
 16.460194 28.527939 0.0
 18.192845 28.527939 0.0
 17.326519 28.027766 0.0
 15.593868 30.02846 0.0
 14.727542 31.52898 0.0
 16.460194 31.52898 0.0
 15.593868 31.028807 0.0
 19.059171 30.02846 0.0
 18.192845 31.52898 0.0
 19.925497 31.52898 0.0
 19.059171 31.028807 0.0
 17.326519 31.028807 0.0
 18.192845 29.528286 0.0
 16.460194 29.528286 0.0
 17.326519 30.02846 0.0
 13.861216 31.028807 0.0
 14.727542 29.528286 0.0
 12.99489 29.528286 0.0
 13.861216 30.02846 0.0
 15.593868 28.027766 0.0
 16.460194 26.527245 0.0
 14.727542 26.527245 0.0
 15.593868 27.027418 0.0
 12.128564 28.027766 0.0
 12.99489 26.527245 0.0
 11.262238 26.527245 0.0
 12.128564 27.027418 0.0
 13.861216 27.027418 0.0
 12.99489 28.527939 0.0
 14.727542 28.527939 0.0
 13.861216 28.027766 0.0
 6.930608 33.029501 0.0
 6.064282 34.530021 0.0
 7.796934 34.530021 0.0
 6.930608 34.029848 0.0
 5.197956 36.030542 0.0
 4.33163 37.531063 0.0
 6.064282 37.531063 0.0
 5.197956 37.030889 0.0
 8.66326 36.030542 0.0
 7.796934 37.531063 0.0
 9.529586 37.531063 0.0
 8.66326 37.030889 0.0
 6.930608 37.030889 0.0
 7.796934 35.530369 0.0
 6.064282 35.530369 0.0
 6.930608 36.030542 0.0
 3.465305 39.031583 0.0
 2.598985 40.532101 0.0
 4.331637 40.532099 0.0
 3.465309 40.031928 0.0
 1.732844 42.032561 0.0
 0.867068 43.532887 0.0
 2.600216 43.532798 0.0
 1.73352 43.032729 0.0
 5.19812 42.032389 0.0
 4.332689 43.532158 0.0
 6.064673 43.531805 0.0
 5.198628 43.031981 0.0
 3.465977 43.032707 0.0
 4.33175 41.532349 0.0
 2.599109 41.532413 0.0
 3.465545 42.03249 0.0
 10.395911 39.031583 0.0
 9.529579 40.5321 0.0
 11.262233 40.532102 0.0
 10.395908 40.031929 0.0
 8.662987 42.032442 0.0
 7.795655 43.532121 0.0
 9.528087 43.532506 0.0
 8.661997 43.032323 0.0
 12.128454 42.03257 0.0
 11.261486 43.53289 0.0
 12.994714 43.532933 0.0
 12.128141 43.032793 0.0
 10.395321 43.03277 0.0
 11.262148 41.532418 0.0
 9.529427 41.532377 0.0
 10.395671 42.032522 0.0
 6.930371 43.03228 0.0
 7.796806 41.532314 0.0
 6.064326 41.532287 0.0
 6.930532 42.032354 0.0
 8.663255 40.031925 0.0
 9.529585 38.531409 0.0
 7.796933 38.531407 0.0
 8.663258 39.03158 0.0
 5.197959 40.031924 0.0
 6.064281 38.531406 0.0
 4.331631 38.531409 0.0
 5.197956 39.03158 0.0
 6.930606 39.031577 0.0
 6.064277 40.532072 0.0
 7.796922 40.532073 0.0
 6.930599 40.031899 0.0
 20.791823 33.029501 0.0
 19.925497 34.530021 0.0
 21.658149 34.530021 0.0
 20.791823 34.029848 0.0
 19.059171 36.030542 0.0
 18.192846 37.531063 0.0
 19.925497 37.531063 0.0
 19.059171 37.030889 0.0
 22.524475 36.030542 0.0
 21.658149 37.531063 0.0
 23.390801 37.531063 0.0
 22.524475 37.030889 0.0
 20.791823 37.030889 0.0
 21.658149 35.530369 0.0
 19.925497 35.530369 0.0
 20.791823 36.030542 0.0
 17.32652 39.031582 0.0
 16.4602 40.532098 0.0
 18.19285 40.532095 0.0
 17.326523 40.031926 0.0
 15.594137 42.03252 0.0
 14.728756 43.532767 0.0
 16.461693 43.532527 0.0
 15.595072 43.032594 0.0
 19.059319 42.032315 0.0
 18.19387 43.531777 0.0
 19.925785 43.531521 0.0
 19.059822 43.031716 0.0
 17.327191 43.03249 0.0
 18.19296 41.532305 0.0
 16.460352 41.532382 0.0
 17.326784 42.032419 0.0
 24.257127 39.031583 0.0
 23.390795 40.532101 0.0
 25.123451 40.532102 0.0
 24.257124 40.031929 0.0
 22.524232 42.032442 0.0
 21.656937 43.532081 0.0
 23.389568 43.532569 0.0
 22.523388 43.032349 0.0
 25.989778 42.032577 0.0
 25.123182 43.532936 0.0
 26.856508 43.53295 0.0
 25.989803 43.032811 0.0
 24.256704 43.032812 0.0
 25.123414 41.532424 0.0
 23.390669 41.532383 0.0
 24.256961 42.032533 0.0
 20.791494 43.032182 0.0
 21.658025 41.532304 0.0
 19.925527 41.532249 0.0
 20.791738 42.032312 0.0
 22.52447 40.031925 0.0
 23.390801 38.531409 0.0
 21.658148 38.531406 0.0
 22.524474 39.03158 0.0
 19.059172 40.031921 0.0
 19.925497 38.531406 0.0
 18.192846 38.531409 0.0
 19.059171 39.031579 0.0
 20.791821 39.031576 0.0
 19.92549 40.532066 0.0
 21.658137 40.532069 0.0
 20.791813 40.031894 0.0
 13.861468 43.032845 0.0
 14.727668 41.532404 0.0
 12.994874 41.532421 0.0
 13.861315 42.032556 0.0
 15.593873 40.031927 0.0
 16.460194 38.531409 0.0
 14.727543 38.531409 0.0
 15.59387 39.031582 0.0
 12.128563 40.031929 0.0
 12.994891 38.531409 0.0
 11.262237 38.531409 0.0
 12.128564 39.031582 0.0
 13.861218 39.031582 0.0
 12.994899 40.532096 0.0
 14.727556 40.532095 0.0
 13.861227 40.031922 0.0
 17.32652 37.030889 0.0
 18.192845 35.530369 0.0
 16.460194 35.530369 0.0
 17.32652 36.030542 0.0
 19.059171 34.029848 0.0
 19.925497 32.529327 0.0
 18.192845 32.529327 0.0
 19.059171 33.029501 0.0
 15.593868 34.029848 0.0
 16.460194 32.529327 0.0
 14.727542 32.529327 0.0
 15.593868 33.029501 0.0
 17.326519 33.029501 0.0
 16.460194 34.530021 0.0
 18.192845 34.530021 0.0
 17.326519 34.029848 0.0
 10.395912 37.030889 0.0
 11.262238 35.530369 0.0
 9.529586 35.530369 0.0
 10.395912 36.030542 0.0
 12.128564 34.029848 0.0
 12.99489 32.529327 0.0
 11.262238 32.529327 0.0
 12.128564 33.029501 0.0
 8.66326 34.029848 0.0
 9.529586 32.529327 0.0
 7.796934 32.529327 0.0
 8.66326 33.029501 0.0
 10.395912 33.029501 0.0
 9.529586 34.530021 0.0
 11.262238 34.530021 0.0
 10.395912 34.029848 0.0
 13.861216 33.029501 0.0
 12.99489 34.530021 0.0
 14.727542 34.530021 0.0
 13.861216 34.029848 0.0
 12.128564 36.030542 0.0
 11.262238 37.531063 0.0
 12.99489 37.531063 0.0
 12.128564 37.030889 0.0
 15.593868 36.030542 0.0
 14.727542 37.531063 0.0
 16.460194 37.531062 0.0
 15.593868 37.030889 0.0
 13.861216 37.030889 0.0
 14.727542 35.530369 0.0
 12.99489 35.530369 0.0
 13.861216 36.030542 0.0
 41.583579 21.025319 0.0
 40.717306 22.525852 0.0
 42.449901 22.525829 0.0
 41.583576 22.025663 0.0
 39.850993 24.026377 0.0
 38.984668 25.526898 0.0
 40.717315 25.526897 0.0
 39.850992 25.026724 0.0
 43.315828 24.026424 0.0
 42.449765 25.526899 0.0
 44.181064 25.526918 0.0
 43.315679 25.026778 0.0
 41.583595 25.026728 0.0
 42.44991 23.526196 0.0
 40.717311 23.526201 0.0
 41.58359 24.026378 0.0
 38.118343 27.027418 0.0
 37.252017 28.527939 0.0
 38.984668 28.527939 0.0
 38.118343 28.027765 0.0
 36.385691 30.02846 0.0
 35.519365 31.52898 0.0
 37.252017 31.52898 0.0
 36.385691 31.028807 0.0
 39.850993 30.02846 0.0
 38.984668 31.52898 0.0
 40.717314 31.52898 0.0
 39.850992 31.028807 0.0
 38.118343 31.028807 0.0
 38.984668 29.528286 0.0
 37.252017 29.528286 0.0
 38.118343 30.02846 0.0
 45.044241 27.025936 0.0
 44.181712 28.527576 0.0
 45.911938 28.525659 0.0
 45.044793 28.026108 0.0
 43.31598 30.028463 0.0
 42.449816 31.528968 0.0
 44.181271 31.528892 0.0
 43.315859 31.028804 0.0
 46.75645 30.035248 0.0
 45.900089 31.529167 0.0
 47.562466 31.532559 0.0
 46.745087 31.035978 0.0
 45.04448 31.029393 0.0
 45.911946 29.52797 0.0
 44.181886 29.528084 0.0
 45.044974 30.028926 0.0
 41.583624 31.028808 0.0
 42.449936 29.52828 0.0
 40.717314 29.528285 0.0
 41.583624 30.028461 0.0
 43.315756 28.027589 0.0
 44.181019 26.527061 0.0
 42.449746 26.527225 0.0
 43.315615 27.027247 0.0
 39.850987 28.027764 0.0
 40.717309 26.527242 0.0
 38.984668 26.527245 0.0
 39.850986 27.027416 0.0
 41.58357 27.027399 0.0
 40.717309 28.527936 0.0
 42.449886 28.527914 0.0
 41.583569 28.027746 0.0
 34.653039 33.029501 0.0
 33.786713 34.530021 0.0
 35.519365 34.530021 0.0
 34.653039 34.029848 0.0
 32.920387 36.030542 0.0
 32.054061 37.531063 0.0
 33.786713 37.531063 0.0
 32.920387 37.030889 0.0
 36.385691 36.030542 0.0
 35.519365 37.531063 0.0
 37.252017 37.531063 0.0
 36.385691 37.030889 0.0
 34.653039 37.030889 0.0
 35.519365 35.530369 0.0
 33.786713 35.530369 0.0
 34.653039 36.030542 0.0
 31.187736 39.031582 0.0
 30.321418 40.5321 0.0
 32.054065 40.532098 0.0
 31.187739 40.031927 0.0
 29.45538 42.032486 0.0
 28.590189 43.532588 0.0
 30.32286 43.532327 0.0
 29.456324 43.032392 0.0
 32.920331 42.032376 0.0
 32.054126 43.531918 0.0
 33.785863 43.531985 0.0
 32.920024 43.031917 0.0
 31.188259 43.032471 0.0
 32.054086 41.532321 0.0
 30.321568 41.532364 0.0
 31.187911 42.032415 0.0
 38.118342 39.031583 0.0
 37.252013 40.532102 0.0
 38.984669 40.532102 0.0
 38.118341 40.031929 0.0
 36.385441 42.032534 0.0
 35.517979 43.53266 0.0
 37.250996 43.532863 0.0
 36.384661 43.032685 0.0
 39.851063 42.032556 0.0
 38.984824 43.532892 0.0
 40.717982 43.532739 0.0
 39.851341 43.032729 0.0
 38.11811 43.032861 0.0
 38.984674 41.532423 0.0
 37.251904 41.532417 0.0
 38.118239 42.032565 0.0
 34.652358 43.032563 0.0
 35.519202 41.532374 0.0
 33.786614 41.532308 0.0
 34.652801 42.032427 0.0
 36.385685 40.031927 0.0
 37.252016 38.53141 0.0
 35.519362 38.531408 0.0
 36.385688 39.031581 0.0
 32.920385 40.031924 0.0
 33.786711 38.531407 0.0
 32.054061 38.531409 0.0
 32.920385 39.03158 0.0
 34.653034 39.031579 0.0
 33.786689 40.53208 0.0
 35.519337 40.532082 0.0
 34.653012 40.031907 0.0
 48.295891 32.948794 0.0
 47.644921 34.514886 0.0
 49.174693 34.114242 0.0
 48.367803 33.947472 0.0
 46.757964 36.036912 0.0
 45.901255 37.530976 0.0
 47.563615 37.533835 0.0
 46.747108 37.03727 0.0
 49.648634 36.901642 0.0
 49.173097 35.907107 0.0
 49.64968 39.109073 0.0
 49.1012 37.57566 0.0
 48.295757 37.092262 0.0
 47.646368 35.531591 0.0
 48.367654 36.090376 0.0
 45.04502 39.030361 0.0
 44.181954 40.531859 0.0
 45.912339 40.530142 0.0
 45.045563 40.030666 0.0
 43.315892 42.032403 0.0
 42.450071 43.531969 0.0
 44.180637 43.53176 0.0
 43.315697 43.031881 0.0
 46.756705 42.038369 0.0
 45.898025 43.531626 0.0
 47.560635 43.534532 0.0
 46.743909 43.038033 0.0
 45.043907 43.03282 0.0
 45.911805 41.531874 0.0
 44.181816 41.532194 0.0
 45.044891 42.032733 0.0
 49.649147 42.902051 0.0
 49.173808 41.90905 0.0
 49.099917 44.450469 0.0
 49.101023 43.576509 0.0
 48.295169 43.093616 0.0
 47.646216 41.534075 0.0
 48.367954 42.092823 0.0
 49.524661 41.006999 0.0
 49.102247 38.449759 0.0
 46.755562 40.019863 0.0
 47.561527 38.517565 0.0
 45.900879 38.52975 0.0
 46.744644 39.019775 0.0
 48.294716 38.950091 0.0
 47.644539 40.517301 0.0
 49.174341 40.116073 0.0
 48.36681 39.949739 0.0
 41.584026 43.032627 0.0
 42.44995 41.532318 0.0
 40.717386 41.532393 0.0
 41.58371 42.032455 0.0
 43.316004 40.031821 0.0
 44.181309 38.531191 0.0
 42.449815 38.531377 0.0
 43.315901 39.031458 0.0
 39.850993 40.031927 0.0
 40.717316 38.531406 0.0
 38.984668 38.531409 0.0
 39.850992 39.03158 0.0
 41.583614 39.031568 0.0
 40.717322 40.532084 0.0
 42.449923 40.532071 0.0
 41.583619 40.031899 0.0
 45.045293 37.031374 0.0
 45.912728 35.530311 0.0
 44.181947 35.530335 0.0
 45.04591 36.031067 0.0
 46.754989 34.018006 0.0
 47.561859 32.516011 0.0
 45.899448 32.527546 0.0
 46.743839 33.017809 0.0
 43.315667 34.029657 0.0
 44.181001 32.529068 0.0
 42.44976 32.529294 0.0
 43.315533 33.029306 0.0
 45.043569 33.027949 0.0
 44.181735 34.529785 0.0
 45.911199 34.528109 0.0
 45.04417 34.028315 0.0
 38.118343 37.030889 0.0
 38.984669 35.530368 0.0
 37.252017 35.530369 0.0
 38.118343 36.030542 0.0
 39.850986 34.029846 0.0
 40.717308 32.529324 0.0
 38.984667 32.529327 0.0
 39.850985 33.029498 0.0
 36.385691 34.029848 0.0
 37.252017 32.529327 0.0
 35.519365 32.529327 0.0
 36.385691 33.029501 0.0
 38.118342 33.029501 0.0
 37.252017 34.530021 0.0
 38.984668 34.530021 0.0
 38.118342 34.029848 0.0
 41.583563 33.029479 0.0
 40.717304 34.530016 0.0
 42.449889 34.529989 0.0
 41.583558 34.029823 0.0
 39.850993 36.030542 0.0
 38.984668 37.531062 0.0
 40.717317 37.531062 0.0
 39.850993 37.030888 0.0
 43.315901 36.030574 0.0
 42.449793 37.531043 0.0
 44.181205 37.530978 0.0
 43.315776 37.03091 0.0
 41.583594 37.03089 0.0
 42.449911 35.530357 0.0
 40.71731 35.530365 0.0
 41.583587 36.03054 0.0
 27.72295 43.032835 0.0
 28.588921 41.532387 0.0
 26.85616 41.532421 0.0
 27.722626 42.032541 0.0
 29.455091 40.031928 0.0
 30.32141 38.531409 0.0
 28.58876 38.531409 0.0
 29.455087 39.031582 0.0
 25.989781 40.031929 0.0
 26.856108 38.531409 0.0
 25.123453 38.531409 0.0
 25.989781 39.031582 0.0
 27.722436 39.031581 0.0
 26.856126 40.532094 0.0
 28.588783 40.532093 0.0
 27.722454 40.03192 0.0
 31.187735 37.030889 0.0
 32.054061 35.530369 0.0
 30.321409 35.530369 0.0
 31.187735 36.030542 0.0
 32.920387 34.029848 0.0
 33.786713 32.529327 0.0
 32.054061 32.529327 0.0
 32.920387 33.029501 0.0
 29.455083 34.029848 0.0
 30.321409 32.529327 0.0
 28.588757 32.529327 0.0
 29.455083 33.029501 0.0
 31.187735 33.029501 0.0
 30.321409 34.530021 0.0
 32.054061 34.530021 0.0
 31.187735 34.029848 0.0
 24.257127 37.030889 0.0
 25.123453 35.530369 0.0
 23.390801 35.530369 0.0
 24.257127 36.030542 0.0
 25.989779 34.029848 0.0
 26.856105 32.529327 0.0
 25.123453 32.529327 0.0
 25.989779 33.029501 0.0
 22.524475 34.029848 0.0
 23.390801 32.529327 0.0
 21.658149 32.529327 0.0
 22.524475 33.029501 0.0
 24.257127 33.029501 0.0
 23.390801 34.530021 0.0
 25.123453 34.530021 0.0
 24.257127 34.029848 0.0
 27.722431 33.029501 0.0
 26.856105 34.530021 0.0
 28.588757 34.530021 0.0
 27.722431 34.029848 0.0
 25.989779 36.030542 0.0
 25.123453 37.531063 0.0
 26.856105 37.531063 0.0
 25.989779 37.030889 0.0
 29.455083 36.030542 0.0
 28.588758 37.531063 0.0
 30.32141 37.531062 0.0
 29.455084 37.030889 0.0
 27.722431 37.030889 0.0
 28.588757 35.530369 0.0
 26.856105 35.530369 0.0
 27.722431 36.030542 0.0
 34.653039 31.028807 0.0
 35.519365 29.528286 0.0
 33.786713 29.528286 0.0
 34.653039 30.02846 0.0
 36.385691 28.027766 0.0
 37.252017 26.527245 0.0
 35.519365 26.527245 0.0
 36.385691 27.027418 0.0
 32.920387 28.027766 0.0
 33.786713 26.527245 0.0
 32.054061 26.527245 0.0
 32.920387 27.027418 0.0
 34.653039 27.027418 0.0
 33.786713 28.527939 0.0
 35.519365 28.527939 0.0
 34.653039 28.027766 0.0
 38.118343 25.026724 0.0
 38.984669 23.526204 0.0
 37.252017 23.526204 0.0
 38.118343 24.026377 0.0
 39.850987 22.025681 0.0
 40.717308 20.525161 0.0
 38.984667 20.525162 0.0
 39.850987 21.025334 0.0
 36.385691 22.025683 0.0
 37.252017 20.525162 0.0
 35.519365 20.525163 0.0
 36.385691 21.025336 0.0
 38.118342 21.025336 0.0
 37.252017 22.525857 0.0
 38.984668 22.525856 0.0
 38.118342 22.025683 0.0
 31.187735 25.026724 0.0
 32.054061 23.526204 0.0
 30.321409 23.526204 0.0
 31.187735 24.026377 0.0
 32.920387 22.025683 0.0
 33.786713 20.525163 0.0
 32.054061 20.525163 0.0
 32.920387 21.025336 0.0
 29.455083 22.025683 0.0
 30.321409 20.525163 0.0
 28.588757 20.525163 0.0
 29.455083 21.025336 0.0
 31.187735 21.025336 0.0
 30.321409 22.525857 0.0
 32.054061 22.525857 0.0
 31.187735 22.025683 0.0
 34.653039 21.025336 0.0
 33.786713 22.525857 0.0
 35.519365 22.525857 0.0
 34.653039 22.025683 0.0
 32.920387 24.026377 0.0
 32.054061 25.526898 0.0
 33.786713 25.526898 0.0
 32.920387 25.026724 0.0
 36.385691 24.026377 0.0
 35.519365 25.526898 0.0
 37.252017 25.526898 0.0
 36.385691 25.026724 0.0
 34.653039 25.026724 0.0
 35.519365 23.526204 0.0
 33.786713 23.526204 0.0
 34.653039 24.026377 0.0
 20.791823 31.028807 0.0
 21.658149 29.528286 0.0
 19.925497 29.528286 0.0
 20.791823 30.02846 0.0
 22.524475 28.027766 0.0
 23.390801 26.527245 0.0
 21.658149 26.527245 0.0
 22.524475 27.027418 0.0
 19.059171 28.027766 0.0
 19.925497 26.527245 0.0
 18.192845 26.527245 0.0
 19.059171 27.027418 0.0
 20.791823 27.027418 0.0
 19.925497 28.527939 0.0
 21.658149 28.527939 0.0
 20.791823 28.027766 0.0
 24.257127 25.026724 0.0
 25.123453 23.526204 0.0
 23.390801 23.526204 0.0
 24.257127 24.026377 0.0
 25.989779 22.025683 0.0
 26.856105 20.525163 0.0
 25.123453 20.525163 0.0
 25.989779 21.025336 0.0
 22.524475 22.025683 0.0
 23.390801 20.525163 0.0
 21.658149 20.525163 0.0
 22.524475 21.025336 0.0
 24.257127 21.025336 0.0
 23.390801 22.525857 0.0
 25.123453 22.525857 0.0
 24.257127 22.025683 0.0
 17.326519 25.026724 0.0
 18.192845 23.526204 0.0
 16.460194 23.526204 0.0
 17.326519 24.026377 0.0
 19.059171 22.025683 0.0
 19.925497 20.525163 0.0
 18.192845 20.525163 0.0
 19.059171 21.025336 0.0
 15.593868 22.025683 0.0
 16.460194 20.525163 0.0
 14.727542 20.525163 0.0
 15.593868 21.025336 0.0
 17.326519 21.025336 0.0
 16.460194 22.525857 0.0
 18.192845 22.525857 0.0
 17.326519 22.025683 0.0
 20.791823 21.025336 0.0
 19.925497 22.525857 0.0
 21.658149 22.525857 0.0
 20.791823 22.025683 0.0
 19.059171 24.026377 0.0
 18.192845 25.526898 0.0
 19.925497 25.526898 0.0
 19.059171 25.026724 0.0
 22.524475 24.026377 0.0
 21.658149 25.526898 0.0
 23.390801 25.526898 0.0
 22.524475 25.026724 0.0
 20.791823 25.026724 0.0
 21.658149 23.526204 0.0
 19.925497 23.526204 0.0
 20.791823 24.026377 0.0
 27.722431 21.025336 0.0
 26.856105 22.525857 0.0
 28.588757 22.525857 0.0
 27.722431 22.025683 0.0
 25.989779 24.026377 0.0
 25.123453 25.526898 0.0
 26.856105 25.526898 0.0
 25.989779 25.026724 0.0
 29.455083 24.026377 0.0
 28.588757 25.526898 0.0
 30.321409 25.526898 0.0
 29.455083 25.026724 0.0
 27.722431 25.026724 0.0
 28.588757 23.526204 0.0
 26.856105 23.526204 0.0
 27.722431 24.026377 0.0
 24.257127 27.027418 0.0
 23.390801 28.527939 0.0
 25.123453 28.527939 0.0
 24.257127 28.027766 0.0
 22.524475 30.02846 0.0
 21.658149 31.52898 0.0
 23.390801 31.52898 0.0
 22.524475 31.028807 0.0
 25.989779 30.02846 0.0
 25.123453 31.52898 0.0
 26.856105 31.52898 0.0
 25.989779 31.028807 0.0
 24.257127 31.028807 0.0
 25.123453 29.528286 0.0
 23.390801 29.528286 0.0
 24.257127 30.02846 0.0
 31.187735 27.027418 0.0
 30.321409 28.527939 0.0
 32.054061 28.527939 0.0
 31.187735 28.027766 0.0
 29.455083 30.02846 0.0
 28.588757 31.52898 0.0
 30.321409 31.52898 0.0
 29.455083 31.028807 0.0
 32.920387 30.02846 0.0
 32.054061 31.52898 0.0
 33.786713 31.52898 0.0
 32.920387 31.028807 0.0
 31.187735 31.028807 0.0
 32.054061 29.528286 0.0
 30.321409 29.528286 0.0
 31.187735 30.02846 0.0
 27.722431 31.028807 0.0
 28.588757 29.528286 0.0
 26.856105 29.528286 0.0
 27.722431 30.02846 0.0
 29.455083 28.027766 0.0
 30.321409 26.527245 0.0
 28.588757 26.527245 0.0
 29.455083 27.027418 0.0
 25.989779 28.027766 0.0
 26.856105 26.527245 0.0
 25.123453 26.527245 0.0
 25.989779 27.027418 0.0
 27.722431 27.027418 0.0
 26.856105 28.527939 0.0
 28.588757 28.527939 0.0
 27.722431 28.027766 0.0
 -1e-05 43.032865 0.0
 0.866393 41.532417 0.0
 -0.866403 41.532416 0.0
 -1e-05 42.032563 0.0
 1.732656 40.031929 0.0
 2.598979 38.531409 0.0
 0.866326 38.531409 0.0
 1.732653 39.031582 0.0
 -1.732655 40.031929 0.0
 -0.866326 38.531409 0.0
 -2.598979 38.531409 0.0
 -1.732653 39.031582 0.0
 -0.0 39.031582 0.0
 -0.86633 40.532097 0.0
 0.866328 40.532097 0.0
 -1e-06 40.031923 0.0
 3.465304 37.030889 0.0
 4.33163 35.530369 0.0
 2.598978 35.530369 0.0
 3.465304 36.030542 0.0
 5.197956 34.029848 0.0
 6.064282 32.529327 0.0
 4.33163 32.529327 0.0
 5.197956 33.029501 0.0
 1.732652 34.029848 0.0
 2.598978 32.529327 0.0
 0.866326 32.529327 0.0
 1.732652 33.029501 0.0
 3.465304 33.029501 0.0
 2.598978 34.530021 0.0
 4.33163 34.530021 0.0
 3.465304 34.029848 0.0
 -3.465304 37.030889 0.0
 -2.598978 35.530369 0.0
 -4.33163 35.530369 0.0
 -3.465304 36.030542 0.0
 -1.732652 34.029848 0.0
 -0.866326 32.529327 0.0
 -2.598978 32.529327 0.0
 -1.732652 33.029501 0.0
 -5.197956 34.029848 0.0
 -4.33163 32.529327 0.0
 -6.064282 32.529327 0.0
 -5.197956 33.029501 0.0
 -3.465304 33.029501 0.0
 -4.33163 34.530021 0.0
 -2.598978 34.530021 0.0
 -3.465304 34.029848 0.0
 0.0 33.029501 0.0
 -0.866326 34.530021 0.0
 0.866326 34.530021 0.0
 0.0 34.029848 0.0
 -1.732652 36.030542 0.0
 -2.598978 37.531063 0.0
 -0.866326 37.531063 0.0
 -1.732652 37.030889 0.0
 1.732652 36.030542 0.0
 0.866326 37.531063 0.0
 2.598978 37.531063 0.0
 1.732652 37.030889 0.0
 -0.0 37.030889 0.0
 0.866326 35.530369 0.0
 -0.866326 35.530369 0.0
 -0.0 36.030542 0.0
 6.930608 31.028807 0.0
 7.796934 29.528286 0.0
 6.064282 29.528286 0.0
 6.930608 30.02846 0.0
 8.66326 28.027766 0.0
 9.529586 26.527245 0.0
 7.796934 26.527245 0.0
 8.66326 27.027418 0.0
 5.197956 28.027766 0.0
 6.064282 26.527245 0.0
 4.33163 26.527245 0.0
 5.197956 27.027418 0.0
 6.930608 27.027418 0.0
 6.064282 28.527939 0.0
 7.796934 28.527939 0.0
 6.930608 28.027766 0.0
 10.395912 25.026724 0.0
 11.262238 23.526204 0.0
 9.529586 23.526204 0.0
 10.395912 24.026377 0.0
 12.128564 22.025683 0.0
 12.99489 20.525163 0.0
 11.262238 20.525163 0.0
 12.128564 21.025336 0.0
 8.66326 22.025683 0.0
 9.529586 20.525163 0.0
 7.796934 20.525163 0.0
 8.66326 21.025336 0.0
 10.395912 21.025336 0.0
 9.529586 22.525857 0.0
 11.262238 22.525857 0.0
 10.395912 22.025683 0.0
 3.465304 25.026724 0.0
 4.33163 23.526204 0.0
 2.598978 23.526204 0.0
 3.465304 24.026377 0.0
 5.197956 22.025683 0.0
 6.064282 20.525163 0.0
 4.33163 20.525163 0.0
 5.197956 21.025336 0.0
 1.732652 22.025683 0.0
 2.598978 20.525163 0.0
 0.866326 20.525163 0.0
 1.732652 21.025336 0.0
 3.465304 21.025336 0.0
 2.598978 22.525857 0.0
 4.33163 22.525857 0.0
 3.465304 22.025683 0.0
 6.930608 21.025336 0.0
 6.064282 22.525857 0.0
 7.796934 22.525857 0.0
 6.930608 22.025683 0.0
 5.197956 24.026377 0.0
 4.33163 25.526898 0.0
 6.064282 25.526898 0.0
 5.197956 25.026724 0.0
 8.66326 24.026377 0.0
 7.796934 25.526898 0.0
 9.529586 25.526898 0.0
 8.66326 25.026724 0.0
 6.930608 25.026724 0.0
 7.796934 23.526204 0.0
 6.064282 23.526204 0.0
 6.930608 24.026377 0.0
 -6.930608 31.028807 0.0
 -6.064282 29.528286 0.0
 -7.796934 29.528286 0.0
 -6.930608 30.02846 0.0
 -5.197956 28.027766 0.0
 -4.33163 26.527245 0.0
 -6.064282 26.527245 0.0
 -5.197956 27.027418 0.0
 -8.66326 28.027766 0.0
 -7.796934 26.527245 0.0
 -9.529586 26.527245 0.0
 -8.66326 27.027418 0.0
 -6.930608 27.027418 0.0
 -7.796934 28.527939 0.0
 -6.064282 28.527939 0.0
 -6.930608 28.027766 0.0
 -3.465304 25.026724 0.0
 -2.598978 23.526204 0.0
 -4.33163 23.526204 0.0
 -3.465304 24.026377 0.0
 -1.732652 22.025683 0.0
 -0.866326 20.525163 0.0
 -2.598978 20.525163 0.0
 -1.732652 21.025336 0.0
 -5.197956 22.025683 0.0
 -4.33163 20.525163 0.0
 -6.064282 20.525163 0.0
 -5.197956 21.025336 0.0
 -3.465304 21.025336 0.0
 -4.33163 22.525857 0.0
 -2.598978 22.525857 0.0
 -3.465304 22.025683 0.0
 -10.395912 25.026724 0.0
 -9.529586 23.526204 0.0
 -11.262238 23.526204 0.0
 -10.395912 24.026377 0.0
 -8.66326 22.025683 0.0
 -7.796934 20.525163 0.0
 -9.529586 20.525163 0.0
 -8.66326 21.025336 0.0
 -12.128564 22.025683 0.0
 -11.262238 20.525163 0.0
 -12.99489 20.525163 0.0
 -12.128564 21.025336 0.0
 -10.395912 21.025336 0.0
 -11.262238 22.525857 0.0
 -9.529586 22.525857 0.0
 -10.395912 22.025683 0.0
 -6.930608 21.025336 0.0
 -7.796934 22.525857 0.0
 -6.064282 22.525857 0.0
 -6.930608 22.025683 0.0
 -8.66326 24.026377 0.0
 -9.529586 25.526898 0.0
 -7.796934 25.526898 0.0
 -8.66326 25.026724 0.0
 -5.197956 24.026377 0.0
 -6.064282 25.526898 0.0
 -4.33163 25.526898 0.0
 -5.197956 25.026724 0.0
 -6.930608 25.026724 0.0
 -6.064282 23.526204 0.0
 -7.796934 23.526204 0.0
 -6.930608 24.026377 0.0
 0.0 21.025336 0.0
 -0.866326 22.525857 0.0
 0.866326 22.525857 0.0
 0.0 22.025683 0.0
 -1.732652 24.026377 0.0
 -2.598978 25.526898 0.0
 -0.866326 25.526898 0.0
 -1.732652 25.026724 0.0
 1.732652 24.026377 0.0
 0.866326 25.526898 0.0
 2.598978 25.526898 0.0
 1.732652 25.026724 0.0
 0.0 25.026724 0.0
 0.866326 23.526204 0.0
 -0.866326 23.526204 0.0
 0.0 24.026377 0.0
 -3.465304 27.027418 0.0
 -4.33163 28.527939 0.0
 -2.598978 28.527939 0.0
 -3.465304 28.027766 0.0
 -5.197956 30.02846 0.0
 -6.064282 31.52898 0.0
 -4.33163 31.52898 0.0
 -5.197956 31.028807 0.0
 -1.732652 30.02846 0.0
 -2.598978 31.52898 0.0
 -0.866326 31.52898 0.0
 -1.732652 31.028807 0.0
 -3.465304 31.028807 0.0
 -2.598978 29.528286 0.0
 -4.33163 29.528286 0.0
 -3.465304 30.02846 0.0
 3.465304 27.027418 0.0
 2.598978 28.527939 0.0
 4.33163 28.527939 0.0
 3.465304 28.027766 0.0
 1.732652 30.02846 0.0
 0.866326 31.52898 0.0
 2.598978 31.52898 0.0
 1.732652 31.028807 0.0
 5.197956 30.02846 0.0
 4.33163 31.52898 0.0
 6.064282 31.52898 0.0
 5.197956 31.028807 0.0
 3.465304 31.028807 0.0
 4.33163 29.528286 0.0
 2.598978 29.528286 0.0
 3.465304 30.02846 0.0
 -0.0 31.028807 0.0
 0.866326 29.528286 0.0
 -0.866326 29.528286 0.0
 0.0 30.02846 0.0
 1.732652 28.027766 0.0
 2.598978 26.527245 0.0
 0.866326 26.527245 0.0
 1.732652 27.027418 0.0
 -1.732652 28.027766 0.0
 -0.866326 26.527245 0.0
 -2.598978 26.527245 0.0
 -1.732652 27.027418 0.0
 0.0 27.027418 0.0
 -0.866326 28.527939 0.0
 0.866326 28.527939 0.0
 0.0 28.027766 0.0
 13.861216 19.024642 0.0
 14.727542 17.524121 0.0
 12.99489 17.524121 0.0
 13.861216 18.024295 0.0
 15.593868 16.023601 0.0
 16.460194 14.52308 0.0
 14.727542 14.52308 0.0
 15.593868 15.023254 0.0
 12.128564 16.023601 0.0
 12.99489 14.52308 0.0
 11.262238 14.52308 0.0
 12.128564 15.023254 0.0
 13.861216 15.023254 0.0
 12.99489 16.523774 0.0
 14.727542 16.523774 0.0
 13.861216 16.023601 0.0
 17.326519 13.022559 0.0
 18.192845 11.522039 0.0
 16.460194 11.522039 0.0
 17.326519 12.022212 0.0
 19.059171 10.021518 0.0
 19.925497 8.520998 0.0
 18.192845 8.520998 0.0
 19.059171 9.021171 0.0
 15.593868 10.021518 0.0
 16.460194 8.520998 0.0
 14.727542 8.520998 0.0
 15.593868 9.021171 0.0
 17.326519 9.021171 0.0
 16.460194 10.521692 0.0
 18.192845 10.521692 0.0
 17.326519 10.021518 0.0
 10.395912 13.022559 0.0
 11.262238 11.522039 0.0
 9.529586 11.522039 0.0
 10.395912 12.022212 0.0
 12.128564 10.021518 0.0
 12.99489 8.520998 0.0
 11.262238 8.520998 0.0
 12.128564 9.021171 0.0
 8.66326 10.021518 0.0
 9.529586 8.520998 0.0
 7.796934 8.520998 0.0
 8.66326 9.021171 0.0
 10.395912 9.021171 0.0
 9.529586 10.521692 0.0
 11.262238 10.521692 0.0
 10.395912 10.021518 0.0
 13.861216 9.021171 0.0
 12.99489 10.521692 0.0
 14.727542 10.521692 0.0
 13.861216 10.021518 0.0
 12.128564 12.022212 0.0
 11.262238 13.522733 0.0
 12.99489 13.522733 0.0
 12.128564 13.022559 0.0
 15.593868 12.022212 0.0
 14.727542 13.522733 0.0
 16.460194 13.522733 0.0
 15.593868 13.022559 0.0
 13.861216 13.022559 0.0
 14.727542 11.522039 0.0
 12.99489 11.522039 0.0
 13.861216 12.022212 0.0
 20.791823 7.020477 0.0
 21.658149 5.519956 0.0
 19.925497 5.519956 0.0
 20.791823 6.02013 0.0
 22.524475 4.019436 0.0
 23.390801 2.518915 0.0
 21.658149 2.518915 0.0
 22.524475 3.019089 0.0
 19.059171 4.019436 0.0
 19.925497 2.518915 0.0
 18.192845 2.518915 0.0
 19.059171 3.019089 0.0
 20.791823 3.019089 0.0
 19.925497 4.519609 0.0
 21.658149 4.519609 0.0
 20.791823 4.019436 0.0
 24.257127 1.018395 0.0
 25.123453 -0.482126 0.0
 23.390801 -0.482126 0.0
 24.257127 0.018048 0.0
 25.989779 -1.982647 0.0
 26.856105 -3.483167 0.0
 25.123453 -3.483167 0.0
 25.989779 -2.982994 0.0
 22.524475 -1.982647 0.0
 23.390801 -3.483167 0.0
 21.658149 -3.483167 0.0
 22.524475 -2.982994 0.0
 24.257127 -2.982994 0.0
 23.390801 -1.482473 0.0
 25.123453 -1.482473 0.0
 24.257127 -1.982647 0.0
 17.326519 1.018395 0.0
 18.192845 -0.482126 0.0
 16.460194 -0.482126 0.0
 17.326519 0.018048 0.0
 19.059171 -1.982647 0.0
 19.925497 -3.483167 0.0
 18.192845 -3.483167 0.0
 19.059171 -2.982994 0.0
 15.593868 -1.982647 0.0
 16.460194 -3.483167 0.0
 14.727542 -3.483167 0.0
 15.593868 -2.982994 0.0
 17.326519 -2.982994 0.0
 16.460194 -1.482473 0.0
 18.192845 -1.482473 0.0
 17.326519 -1.982647 0.0
 20.791823 -2.982994 0.0
 19.925497 -1.482473 0.0
 21.658149 -1.482473 0.0
 20.791823 -1.982647 0.0
 19.059171 0.018048 0.0
 18.192845 1.518568 0.0
 19.925497 1.518568 0.0
 19.059171 1.018395 0.0
 22.524475 0.018048 0.0
 21.658149 1.518568 0.0
 23.390801 1.518568 0.0
 22.524475 1.018395 0.0
 20.791823 1.018395 0.0
 21.658149 -0.482126 0.0
 19.925497 -0.482126 0.0
 20.791823 0.018048 0.0
 6.930608 7.020477 0.0
 7.796934 5.519956 0.0
 6.064282 5.519956 0.0
 6.930608 6.02013 0.0
 8.66326 4.019436 0.0
 9.529586 2.518915 0.0
 7.796934 2.518915 0.0
 8.66326 3.019089 0.0
 5.197956 4.019436 0.0
 6.064282 2.518915 0.0
 4.33163 2.518915 0.0
 5.197956 3.019089 0.0
 6.930608 3.019089 0.0
 6.064282 4.519609 0.0
 7.796934 4.519609 0.0
 6.930608 4.019436 0.0
 10.395912 1.018395 0.0
 11.262238 -0.482126 0.0
 9.529586 -0.482126 0.0
 10.395912 0.018048 0.0
 12.128564 -1.982647 0.0
 12.99489 -3.483167 0.0
 11.262238 -3.483167 0.0
 12.128564 -2.982994 0.0
 8.66326 -1.982647 0.0
 9.529586 -3.483167 0.0
 7.796934 -3.483167 0.0
 8.66326 -2.982994 0.0
 10.395912 -2.982994 0.0
 9.529586 -1.482473 0.0
 11.262238 -1.482473 0.0
 10.395912 -1.982647 0.0
 3.465304 1.018395 0.0
 4.33163 -0.482126 0.0
 2.598978 -0.482126 0.0
 3.465304 0.018048 0.0
 5.197956 -1.982647 0.0
 6.064282 -3.483167 0.0
 4.33163 -3.483167 0.0
 5.197956 -2.982994 0.0
 1.732652 -1.982647 0.0
 2.598978 -3.483167 0.0
 0.866326 -3.483167 0.0
 1.732652 -2.982994 0.0
 3.465304 -2.982994 0.0
 2.598978 -1.482473 0.0
 4.33163 -1.482473 0.0
 3.465304 -1.982647 0.0
 6.930608 -2.982994 0.0
 6.064282 -1.482473 0.0
 7.796934 -1.482473 0.0
 6.930608 -1.982647 0.0
 5.197956 0.018048 0.0
 4.33163 1.518568 0.0
 6.064282 1.518568 0.0
 5.197956 1.018395 0.0
 8.66326 0.018048 0.0
 7.796934 1.518568 0.0
 9.529586 1.518568 0.0
 8.66326 1.018395 0.0
 6.930608 1.018395 0.0
 7.796934 -0.482126 0.0
 6.064282 -0.482126 0.0
 6.930608 0.018048 0.0
 13.861216 -2.982994 0.0
 12.99489 -1.482473 0.0
 14.727542 -1.482473 0.0
 13.861216 -1.982647 0.0
 12.128564 0.018048 0.0
 11.262238 1.518568 0.0
 12.99489 1.518568 0.0
 12.128564 1.018395 0.0
 15.593868 0.018048 0.0
 14.727542 1.518568 0.0
 16.460194 1.518568 0.0
 15.593868 1.018395 0.0
 13.861216 1.018395 0.0
 14.727542 -0.482126 0.0
 12.99489 -0.482126 0.0
 13.861216 0.018048 0.0
 10.395912 3.019089 0.0
 9.529586 4.519609 0.0
 11.262238 4.519609 0.0
 10.395912 4.019436 0.0
 8.66326 6.02013 0.0
 7.796934 7.520651 0.0
 9.529586 7.520651 0.0
 8.66326 7.020477 0.0
 12.128564 6.02013 0.0
 11.262238 7.520651 0.0
 12.99489 7.520651 0.0
 12.128564 7.020477 0.0
 10.395912 7.020477 0.0
 11.262238 5.519956 0.0
 9.529586 5.519956 0.0
 10.395912 6.02013 0.0
 17.326519 3.019089 0.0
 16.460194 4.519609 0.0
 18.192845 4.519609 0.0
 17.326519 4.019436 0.0
 15.593868 6.02013 0.0
 14.727542 7.520651 0.0
 16.460194 7.520651 0.0
 15.593868 7.020477 0.0
 19.059171 6.02013 0.0
 18.192845 7.520651 0.0
 19.925497 7.520651 0.0
 19.059171 7.020477 0.0
 17.326519 7.020477 0.0
 18.192845 5.519956 0.0
 16.460194 5.519956 0.0
 17.326519 6.02013 0.0
 13.861216 7.020477 0.0
 14.727542 5.519956 0.0
 12.99489 5.519956 0.0
 13.861216 6.02013 0.0
 15.593868 4.019436 0.0
 16.460194 2.518915 0.0
 14.727542 2.518915 0.0
 15.593868 3.019089 0.0
 12.128564 4.019436 0.0
 12.99489 2.518915 0.0
 11.262238 2.518915 0.0
 12.128564 3.019089 0.0
 13.861216 3.019089 0.0
 12.99489 4.519609 0.0
 14.727542 4.519609 0.0
 13.861216 4.019436 0.0
 -13.861216 19.024642 0.0
 -12.99489 17.524121 0.0
 -14.727542 17.524121 0.0
 -13.861216 18.024295 0.0
 -12.128564 16.023601 0.0
 -11.262238 14.52308 0.0
 -12.99489 14.52308 0.0
 -12.128564 15.023254 0.0
 -15.593868 16.023601 0.0
 -14.727542 14.52308 0.0
 -16.460194 14.52308 0.0
 -15.593868 15.023254 0.0
 -13.861216 15.023254 0.0
 -14.727542 16.523774 0.0
 -12.99489 16.523774 0.0
 -13.861216 16.023601 0.0
 -10.395912 13.022559 0.0
 -9.529586 11.522039 0.0
 -11.262238 11.522039 0.0
 -10.395912 12.022212 0.0
 -8.66326 10.021518 0.0
 -7.796934 8.520998 0.0
 -9.529586 8.520998 0.0
 -8.66326 9.021171 0.0
 -12.128564 10.021518 0.0
 -11.262238 8.520998 0.0
 -12.99489 8.520998 0.0
 -12.128564 9.021171 0.0
 -10.395912 9.021171 0.0
 -11.262238 10.521692 0.0
 -9.529586 10.521692 0.0
 -10.395912 10.021518 0.0
 -17.326519 13.022559 0.0
 -16.460194 11.522039 0.0
 -18.192845 11.522039 0.0
 -17.326519 12.022212 0.0
 -15.593868 10.021518 0.0
 -14.727542 8.520998 0.0
 -16.460194 8.520998 0.0
 -15.593868 9.021171 0.0
 -19.059171 10.021518 0.0
 -18.192845 8.520998 0.0
 -19.925497 8.520998 0.0
 -19.059171 9.021171 0.0
 -17.326519 9.021171 0.0
 -18.192845 10.521692 0.0
 -16.460194 10.521692 0.0
 -17.326519 10.021518 0.0
 -13.861216 9.021171 0.0
 -14.727542 10.521692 0.0
 -12.99489 10.521692 0.0
 -13.861216 10.021518 0.0
 -15.593868 12.022212 0.0
 -16.460194 13.522733 0.0
 -14.727542 13.522733 0.0
 -15.593868 13.022559 0.0
 -12.128564 12.022212 0.0
 -12.99489 13.522733 0.0
 -11.262238 13.522733 0.0
 -12.128564 13.022559 0.0
 -13.861216 13.022559 0.0
 -12.99489 11.522039 0.0
 -14.727542 11.522039 0.0
 -13.861216 12.022212 0.0
 -6.930608 7.020477 0.0
 -6.064282 5.519956 0.0
 -7.796934 5.519956 0.0
 -6.930608 6.02013 0.0
 -5.197956 4.019436 0.0
 -4.33163 2.518915 0.0
 -6.064282 2.518915 0.0
 -5.197956 3.019089 0.0
 -8.66326 4.019436 0.0
 -7.796934 2.518915 0.0
 -9.529586 2.518915 0.0
 -8.66326 3.019089 0.0
 -6.930608 3.019089 0.0
 -7.796934 4.519609 0.0
 -6.064282 4.519609 0.0
 -6.930608 4.019436 0.0
 -3.465304 1.018395 0.0
 -2.598978 -0.482126 0.0
 -4.33163 -0.482126 0.0
 -3.465304 0.018048 0.0
 -1.732652 -1.982647 0.0
 -0.866326 -3.483167 0.0
 -2.598978 -3.483167 0.0
 -1.732652 -2.982994 0.0
 -5.197956 -1.982647 0.0
 -4.33163 -3.483167 0.0
 -6.064282 -3.483167 0.0
 -5.197956 -2.982994 0.0
 -3.465304 -2.982994 0.0
 -4.33163 -1.482473 0.0
 -2.598978 -1.482473 0.0
 -3.465304 -1.982647 0.0
 -10.395912 1.018395 0.0
 -9.529586 -0.482126 0.0
 -11.262238 -0.482126 0.0
 -10.395912 0.018048 0.0
 -8.66326 -1.982647 0.0
 -7.796934 -3.483167 0.0
 -9.529586 -3.483167 0.0
 -8.66326 -2.982994 0.0
 -12.128564 -1.982647 0.0
 -11.262238 -3.483167 0.0
 -12.99489 -3.483167 0.0
 -12.128564 -2.982994 0.0
 -10.395912 -2.982994 0.0
 -11.262238 -1.482473 0.0
 -9.529586 -1.482473 0.0
 -10.395912 -1.982647 0.0
 -6.930608 -2.982994 0.0
 -7.796934 -1.482473 0.0
 -6.064282 -1.482473 0.0
 -6.930608 -1.982647 0.0
 -8.66326 0.018048 0.0
 -9.529586 1.518568 0.0
 -7.796934 1.518568 0.0
 -8.66326 1.018395 0.0
 -5.197956 0.018048 0.0
 -6.064282 1.518568 0.0
 -4.33163 1.518568 0.0
 -5.197956 1.018395 0.0
 -6.930608 1.018395 0.0
 -6.064282 -0.482126 0.0
 -7.796934 -0.482126 0.0
 -6.930608 0.018048 0.0
 -20.791823 7.020477 0.0
 -19.925497 5.519956 0.0
 -21.658149 5.519956 0.0
 -20.791823 6.02013 0.0
 -19.059171 4.019436 0.0
 -18.192845 2.518915 0.0
 -19.925497 2.518915 0.0
 -19.059171 3.019089 0.0
 -22.524475 4.019436 0.0
 -21.658149 2.518915 0.0
 -23.390801 2.518915 0.0
 -22.524475 3.019089 0.0
 -20.791823 3.019089 0.0
 -21.658149 4.519609 0.0
 -19.925497 4.519609 0.0
 -20.791823 4.019436 0.0
 -17.326519 1.018395 0.0
 -16.460194 -0.482126 0.0
 -18.192845 -0.482126 0.0
 -17.326519 0.018048 0.0
 -15.593868 -1.982647 0.0
 -14.727542 -3.483167 0.0
 -16.460194 -3.483167 0.0
 -15.593868 -2.982994 0.0
 -19.059171 -1.982647 0.0
 -18.192845 -3.483167 0.0
 -19.925497 -3.483167 0.0
 -19.059171 -2.982994 0.0
 -17.326519 -2.982994 0.0
 -18.192845 -1.482473 0.0
 -16.460194 -1.482473 0.0
 -17.326519 -1.982647 0.0
 -24.257127 1.018395 0.0
 -23.390801 -0.482126 0.0
 -25.123453 -0.482126 0.0
 -24.257127 0.018048 0.0
 -22.524475 -1.982647 0.0
 -21.658149 -3.483167 0.0
 -23.390801 -3.483167 0.0
 -22.524475 -2.982994 0.0
 -25.989779 -1.982647 0.0
 -25.123453 -3.483167 0.0
 -26.856105 -3.483167 0.0
 -25.989779 -2.982994 0.0
 -24.257127 -2.982994 0.0
 -25.123453 -1.482473 0.0
 -23.390801 -1.482473 0.0
 -24.257127 -1.982647 0.0
 -20.791823 -2.982994 0.0
 -21.658149 -1.482473 0.0
 -19.925497 -1.482473 0.0
 -20.791823 -1.982647 0.0
 -22.524475 0.018048 0.0
 -23.390801 1.518568 0.0
 -21.658149 1.518568 0.0
 -22.524475 1.018395 0.0
 -19.059171 0.018048 0.0
 -19.925497 1.518568 0.0
 -18.192845 1.518568 0.0
 -19.059171 1.018395 0.0
 -20.791823 1.018395 0.0
 -19.925497 -0.482126 0.0
 -21.658149 -0.482126 0.0
 -20.791823 0.018048 0.0
 -13.861216 -2.982994 0.0
 -14.727542 -1.482473 0.0
 -12.99489 -1.482473 0.0
 -13.861216 -1.982647 0.0
 -15.593868 0.018048 0.0
 -16.460194 1.518568 0.0
 -14.727542 1.518568 0.0
 -15.593868 1.018395 0.0
 -12.128564 0.018048 0.0
 -12.99489 1.518568 0.0
 -11.262238 1.518568 0.0
 -12.128564 1.018395 0.0
 -13.861216 1.018395 0.0
 -12.99489 -0.482126 0.0
 -14.727542 -0.482126 0.0
 -13.861216 0.018048 0.0
 -17.326519 3.019089 0.0
 -18.192845 4.519609 0.0
 -16.460194 4.519609 0.0
 -17.326519 4.019436 0.0
 -19.059171 6.02013 0.0
 -19.925497 7.520651 0.0
 -18.192845 7.520651 0.0
 -19.059171 7.020477 0.0
 -15.593868 6.02013 0.0
 -16.460194 7.520651 0.0
 -14.727542 7.520651 0.0
 -15.593868 7.020477 0.0
 -17.326519 7.020477 0.0
 -16.460194 5.519956 0.0
 -18.192845 5.519956 0.0
 -17.326519 6.02013 0.0
 -10.395912 3.019089 0.0
 -11.262238 4.519609 0.0
 -9.529586 4.519609 0.0
 -10.395912 4.019436 0.0
 -12.128564 6.02013 0.0
 -12.99489 7.520651 0.0
 -11.262238 7.520651 0.0
 -12.128564 7.020477 0.0
 -8.66326 6.02013 0.0
 -9.529586 7.520651 0.0
 -7.796934 7.520651 0.0
 -8.66326 7.020477 0.0
 -10.395912 7.020477 0.0
 -9.529586 5.519956 0.0
 -11.262238 5.519956 0.0
 -10.395912 6.02013 0.0
 -13.861216 7.020477 0.0
 -12.99489 5.519956 0.0
 -14.727542 5.519956 0.0
 -13.861216 6.02013 0.0
 -12.128564 4.019436 0.0
 -11.262238 2.518915 0.0
 -12.99489 2.518915 0.0
 -12.128564 3.019089 0.0
 -15.593868 4.019436 0.0
 -14.727542 2.518915 0.0
 -16.460194 2.518915 0.0
 -15.593868 3.019089 0.0
 -13.861216 3.019089 0.0
 -14.727542 4.519609 0.0
 -12.99489 4.519609 0.0
 -13.861216 4.019436 0.0
 0.0 -2.982994 0.0
 -0.866326 -1.482473 0.0
 0.866326 -1.482473 0.0
 0.0 -1.982647 0.0
 -1.732652 0.018048 0.0
 -2.598978 1.518568 0.0
 -0.866326 1.518568 0.0
 -1.732652 1.018395 0.0
 1.732652 0.018048 0.0
 0.866326 1.518568 0.0
 2.598978 1.518568 0.0
 1.732652 1.018395 0.0
 0.0 1.018395 0.0
 0.866326 -0.482126 0.0
 -0.866326 -0.482126 0.0
 0.0 0.018048 0.0
 -3.465304 3.019089 0.0
 -4.33163 4.519609 0.0
 -2.598978 4.519609 0.0
 -3.465304 4.019436 0.0
 -5.197956 6.02013 0.0
 -6.064282 7.520651 0.0
 -4.33163 7.520651 0.0
 -5.197956 7.020477 0.0
 -1.732652 6.02013 0.0
 -2.598978 7.520651 0.0
 -0.866326 7.520651 0.0
 -1.732652 7.020477 0.0
 -3.465304 7.020477 0.0
 -2.598978 5.519956 0.0
 -4.33163 5.519956 0.0
 -3.465304 6.02013 0.0
 3.465304 3.019089 0.0
 2.598978 4.519609 0.0
 4.33163 4.519609 0.0
 3.465304 4.019436 0.0
 1.732652 6.02013 0.0
 0.866326 7.520651 0.0
 2.598978 7.520651 0.0
 1.732652 7.020477 0.0
 5.197956 6.02013 0.0
 4.33163 7.520651 0.0
 6.064282 7.520651 0.0
 5.197956 7.020477 0.0
 3.465304 7.020477 0.0
 4.33163 5.519956 0.0
 2.598978 5.519956 0.0
 3.465304 6.02013 0.0
 0.0 7.020477 0.0
 0.866326 5.519956 0.0
 -0.866326 5.519956 0.0
 0.0 6.02013 0.0
 1.732652 4.019436 0.0
 2.598978 2.518915 0.0
 0.866326 2.518915 0.0
 1.732652 3.019089 0.0
 -1.732652 4.019436 0.0
 -0.866326 2.518915 0.0
 -2.598978 2.518915 0.0
 -1.732652 3.019089 0.0
 0.0 3.019089 0.0
 -0.866326 4.519609 0.0
 0.866326 4.519609 0.0
 0.0 4.019436 0.0
 -6.930608 9.021171 0.0
 -7.796934 10.521692 0.0
 -6.064282 10.521692 0.0
 -6.930608 10.021518 0.0
 -8.66326 12.022212 0.0
 -9.529586 13.522733 0.0
 -7.796934 13.522733 0.0
 -8.66326 13.022559 0.0
 -5.197956 12.022212 0.0
 -6.064282 13.522733 0.0
 -4.33163 13.522733 0.0
 -5.197956 13.022559 0.0
 -6.930608 13.022559 0.0
 -6.064282 11.522039 0.0
 -7.796934 11.522039 0.0
 -6.930608 12.022212 0.0
 -10.395912 15.023254 0.0
 -11.262238 16.523774 0.0
 -9.529586 16.523774 0.0
 -10.395912 16.023601 0.0
 -12.128564 18.024295 0.0
 -12.99489 19.524815 0.0
 -11.262238 19.524815 0.0
 -12.128564 19.024642 0.0
 -8.66326 18.024295 0.0
 -9.529586 19.524815 0.0
 -7.796934 19.524815 0.0
 -8.66326 19.024642 0.0
 -10.395912 19.024642 0.0
 -9.529586 17.524121 0.0
 -11.262238 17.524121 0.0
 -10.395912 18.024295 0.0
 -3.465304 15.023254 0.0
 -4.33163 16.523774 0.0
 -2.598978 16.523774 0.0
 -3.465304 16.023601 0.0
 -5.197956 18.024295 0.0
 -6.064282 19.524815 0.0
 -4.33163 19.524815 0.0
 -5.197956 19.024642 0.0
 -1.732652 18.024295 0.0
 -2.598978 19.524815 0.0
 -0.866326 19.524815 0.0
 -1.732652 19.024642 0.0
 -3.465304 19.024642 0.0
 -2.598978 17.524121 0.0
 -4.33163 17.524121 0.0
 -3.465304 18.024295 0.0
 -6.930608 19.024642 0.0
 -6.064282 17.524121 0.0
 -7.796934 17.524121 0.0
 -6.930608 18.024295 0.0
 -5.197956 16.023601 0.0
 -4.33163 14.52308 0.0
 -6.064282 14.52308 0.0
 -5.197956 15.023254 0.0
 -8.66326 16.023601 0.0
 -7.796934 14.52308 0.0
 -9.529586 14.52308 0.0
 -8.66326 15.023254 0.0
 -6.930608 15.023254 0.0
 -7.796934 16.523774 0.0
 -6.064282 16.523774 0.0
 -6.930608 16.023601 0.0
 6.930608 9.021171 0.0
 6.064282 10.521692 0.0
 7.796934 10.521692 0.0
 6.930608 10.021518 0.0
 5.197956 12.022212 0.0
 4.33163 13.522733 0.0
 6.064282 13.522733 0.0
 5.197956 13.022559 0.0
 8.66326 12.022212 0.0
 7.796934 13.522733 0.0
 9.529586 13.522733 0.0
 8.66326 13.022559 0.0
 6.930608 13.022559 0.0
 7.796934 11.522039 0.0
 6.064282 11.522039 0.0
 6.930608 12.022212 0.0
 3.465304 15.023254 0.0
 2.598978 16.523774 0.0
 4.33163 16.523774 0.0
 3.465304 16.023601 0.0
 1.732652 18.024295 0.0
 0.866326 19.524815 0.0
 2.598978 19.524815 0.0
 1.732652 19.024642 0.0
 5.197956 18.024295 0.0
 4.33163 19.524815 0.0
 6.064282 19.524815 0.0
 5.197956 19.024642 0.0
 3.465304 19.024642 0.0
 4.33163 17.524121 0.0
 2.598978 17.524121 0.0
 3.465304 18.024295 0.0
 10.395912 15.023254 0.0
 9.529586 16.523774 0.0
 11.262238 16.523774 0.0
 10.395912 16.023601 0.0
 8.66326 18.024295 0.0
 7.796934 19.524815 0.0
 9.529586 19.524815 0.0
 8.66326 19.024642 0.0
 12.128564 18.024295 0.0
 11.262238 19.524815 0.0
 12.99489 19.524815 0.0
 12.128564 19.024642 0.0
 10.395912 19.024642 0.0
 11.262238 17.524121 0.0
 9.529586 17.524121 0.0
 10.395912 18.024295 0.0
 6.930608 19.024642 0.0
 7.796934 17.524121 0.0
 6.064282 17.524121 0.0
 6.930608 18.024295 0.0
 8.66326 16.023601 0.0
 9.529586 14.52308 0.0
 7.796934 14.52308 0.0
 8.66326 15.023254 0.0
 5.197956 16.023601 0.0
 6.064282 14.52308 0.0
 4.33163 14.52308 0.0
 5.197956 15.023254 0.0
 6.930608 15.023254 0.0
 6.064282 16.523774 0.0
 7.796934 16.523774 0.0
 6.930608 16.023601 0.0
 0.0 19.024642 0.0
 0.866326 17.524121 0.0
 -0.866326 17.524121 0.0
 0.0 18.024295 0.0
 1.732652 16.023601 0.0
 2.598978 14.52308 0.0
 0.866326 14.52308 0.0
 1.732652 15.023254 0.0
 -1.732652 16.023601 0.0
 -0.866326 14.52308 0.0
 -2.598978 14.52308 0.0
 -1.732652 15.023254 0.0
 0.0 15.023254 0.0
 -0.866326 16.523774 0.0
 0.866326 16.523774 0.0
 0.0 16.023601 0.0
 3.465304 13.022559 0.0
 4.33163 11.522039 0.0
 2.598978 11.522039 0.0
 3.465304 12.022212 0.0
 5.197956 10.021518 0.0
 6.064282 8.520998 0.0
 4.33163 8.520998 0.0
 5.197956 9.021171 0.0
 1.732652 10.021518 0.0
 2.598978 8.520998 0.0
 0.866326 8.520998 0.0
 1.732652 9.021171 0.0
 3.465304 9.021171 0.0
 2.598978 10.521692 0.0
 4.33163 10.521692 0.0
 3.465304 10.021518 0.0
 -3.465304 13.022559 0.0
 -2.598978 11.522039 0.0
 -4.33163 11.522039 0.0
 -3.465304 12.022212 0.0
 -1.732652 10.021518 0.0
 -0.866326 8.520998 0.0
 -2.598978 8.520998 0.0
 -1.732652 9.021171 0.0
 -5.197956 10.021518 0.0
 -4.33163 8.520998 0.0
 -6.064282 8.520998 0.0
 -5.197956 9.021171 0.0
 -3.465304 9.021171 0.0
 -4.33163 10.521692 0.0
 -2.598978 10.521692 0.0
 -3.465304 10.021518 0.0
 0.0 9.021171 0.0
 -0.866326 10.521692 0.0
 0.866326 10.521692 0.0
 0.0 10.021518 0.0
 -1.732652 12.022212 0.0
 -2.598978 13.522733 0.0
 -0.866326 13.522733 0.0
 -1.732652 13.022559 0.0
 1.732652 12.022212 0.0
 0.866326 13.522733 0.0
 2.598978 13.522733 0.0
 1.732652 13.022559 0.0
 0.0 13.022559 0.0
 0.866326 11.522039 0.0
 -0.866326 11.522039 0.0
 0.0 12.022212 0.0
POINT_DATA 7788
VECTORS displacement double
0.995079  -0.145423  0.0
0.996475  -0.139725  0.0
0.951899  -0.152887  0.0
0.957511  -0.146883  0.0
0.941422  -0.146584  0.0
0.948907  -0.148084  0.0
0.967135  -0.142443  0.0
0.975506  -0.137945  0.0
0.958846  -0.137972  0.0
0.967269  -0.139446  0.0
0.933135  -0.142422  0.0
0.941684  -0.137968  0.0
0.924397  -0.137969  0.0
0.933054  -0.139462  0.0
0.950277  -0.139464  0.0
0.941591  -0.143879  0.0
0.958539  -0.143921  0.0
0.950104  -0.142416  0.0
0.982856  -0.139248  0.0
0.975943  -0.143941  0.0
0.991554  -0.142747  0.0
0.983427  -0.142247  0.0
0.965326  -0.148443  0.0
0.962997  -0.151424  0.0
0.945624  -0.151106  0.0
0.971085  -0.152947  0.0
0.996084  -0.151113  0.0
0.991163  -0.148125  0.0
0.989414  -0.153114  0.0
0.980508  -0.151647  0.0
0.975163  -0.146978  0.0
0.982256  -0.14866  0.0
0.88984  -0.146943  0.0
0.871936  -0.14692  0.0
0.880779  -0.148421  0.0
0.898506  -0.142465  0.0
0.907061  -0.137969  0.0
0.889697  -0.137959  0.0
0.898411  -0.139466  0.0
0.863565  -0.142429  0.0
0.872326  -0.137943  0.0
0.854984  -0.137922  0.0
0.863653  -0.139433  0.0
0.881027  -0.139453  0.0
0.872231  -0.143937  0.0
0.889785  -0.143956  0.0
0.881019  -0.142451  0.0
0.815569  -0.150926  0.0
0.820641  -0.146443  0.0
0.804505  -0.146685  0.0
0.812949  -0.14791  0.0
0.829049  -0.142311  0.0
0.837682  -0.137888  0.0
0.820423  -0.137849  0.0
0.829077  -0.13936  0.0
0.794907  -0.142267  0.0
0.80318  -0.137812  0.0
0.785897  -0.137765  0.0
0.794626  -0.139283  0.0
0.811865  -0.139322  0.0
0.803667  -0.14374  0.0
0.820601  -0.143743  0.0
0.812071  -0.142265  0.0
0.846334  -0.139403  0.0
0.837502  -0.143822  0.0
0.854744  -0.1439  0.0
0.846183  -0.142386  0.0
0.828269  -0.147946  0.0
0.825362  -0.150944  0.0
0.808796  -0.152669  0.0
0.831862  -0.152727  0.0
0.86262  -0.148386  0.0
0.861519  -0.151351  0.0
0.851079  -0.15281  0.0
0.870521  -0.152853  0.0
0.880465  -0.151388  0.0
0.842799  -0.151267  0.0
0.854093  -0.146874  0.0
0.836682  -0.146758  0.0
0.844712  -0.148295  0.0
0.915766  -0.139469  0.0
0.907325  -0.14396  0.0
0.924646  -0.143919  0.0
0.915934  -0.14246  0.0
0.89896  -0.148436  0.0
0.899416  -0.151406  0.0
0.889982  -0.15288  0.0
0.933585  -0.148077  0.0
0.935822  -0.151094  0.0
0.909444  -0.152895  0.0
0.928765  -0.152868  0.0
0.918216  -0.151376  0.0
0.925265  -0.146869  0.0
0.907724  -0.146944  0.0
0.916952  -0.148394  0.0
0.751413  -0.14655  0.0
0.733667  -0.146425  0.0
0.742317  -0.147968  0.0
0.760148  -0.142142  0.0
0.768598  -0.137702  0.0
0.751312  -0.137621  0.0
0.76002  -0.139157  0.0
0.725464  -0.141918  0.0
0.734042  -0.13752  0.0
0.716824  -0.137397  0.0
0.72548  -0.138949  0.0
0.742728  -0.139065  0.0
0.734051  -0.143468  0.0
0.751465  -0.143583  0.0
0.742753  -0.142044  0.0
0.678642  -0.150279  0.0
0.68436  -0.145889  0.0
0.667119  -0.145773  0.0
0.676523  -0.14731  0.0
0.691531  -0.141575  0.0
0.69967  -0.13725  0.0
0.682536  -0.137088  0.0
0.691225  -0.138652  0.0
0.657344  -0.141242  0.0
0.665384  -0.136902  0.0
0.648214  -0.136679  0.0
0.65696  -0.138279  0.0
0.674112  -0.138481  0.0
0.666226  -0.142821  0.0
0.6833  -0.142967  0.0
0.674571  -0.141436  0.0
0.708321  -0.138809  0.0
0.70005  -0.143099  0.0
0.716882  -0.143291  0.0
0.708395  -0.141735  0.0
0.692812  -0.147166  0.0
0.689592  -0.151874  0.0
0.670593  -0.151684  0.0
0.695925  -0.150182  0.0
0.724486  -0.147789  0.0
0.723042  -0.150726  0.0
0.712463  -0.152105  0.0
0.731583  -0.152304  0.0
0.741676  -0.15091  0.0
0.705641  -0.150279  0.0
0.716287  -0.146204  0.0
0.700272  -0.145767  0.0
0.708023  -0.147316  0.0
0.604363  -0.149079  0.0
0.614251  -0.144934  0.0
0.59675  -0.144538  0.0
0.605222  -0.146195  0.0
0.622866  -0.140702  0.0
0.63105  -0.136415  0.0
0.613913  -0.136109  0.0
0.62262  -0.137748  0.0
0.588579  -0.13996  0.0
0.596804  -0.135754  0.0
0.579757  -0.135345  0.0
0.588423  -0.137028  0.0
0.605493  -0.137415  0.0
0.597114  -0.141629  0.0
0.614312  -0.142007  0.0
0.605647  -0.140359  0.0
0.542304  -0.147258  0.0
0.548153  -0.143099  0.0
0.531084  -0.142562  0.0
0.540382  -0.144309  0.0
0.55506  -0.138995  0.0
0.562775  -0.134881  0.0
0.545806  -0.134363  0.0
0.55453  -0.136095  0.0
0.521228  -0.137851  0.0
0.528818  -0.133776  0.0
0.51182  -0.133106  0.0
0.52061  -0.134919  0.0
0.537588  -0.135547  0.0
0.530108  -0.139637  0.0
0.547008  -0.140191  0.0
0.53826  -0.138476  0.0
0.571452  -0.136588  0.0
0.563583  -0.140673  0.0
0.580191  -0.141169  0.0
0.571729  -0.139481  0.0
0.556533  -0.144541  0.0
0.559382  -0.147555  0.0
0.534208  -0.148421  0.0
0.552925  -0.149062  0.0
0.587678  -0.145726  0.0
0.586024  -0.148587  0.0
0.575427  -0.149745  0.0
0.594238  -0.150284  0.0
0.568946  -0.147834  0.0
0.579654  -0.144027  0.0
0.563911  -0.143312  0.0
0.571519  -0.144977  0.0
0.63978  -0.138035  0.0
0.631619  -0.142329  0.0
0.648921  -0.142602  0.0
0.640104  -0.140995  0.0
0.623054  -0.146568  0.0
0.613251  -0.150724  0.0
0.622913  -0.149474  0.0
0.658829  -0.147142  0.0
0.660183  -0.150085  0.0
0.632323  -0.151099  0.0
0.651462  -0.151419  0.0
0.641541  -0.149807  0.0
0.649513  -0.14555  0.0
0.631869  -0.145268  0.0
0.640946  -0.146881  0.0
0.777327  -0.139231  0.0
0.768952  -0.143672  0.0
0.786404  -0.143736  0.0
0.777552  -0.142217  0.0
0.760384  -0.148079  0.0
0.75088  -0.152441  0.0
0.796383  -0.148184  0.0
0.760491  -0.151028  0.0
0.798053  -0.151152  0.0
0.770215  -0.152549  0.0
0.789581  -0.152632  0.0
0.779346  -0.151117  0.0
0.787043  -0.146707  0.0
0.769239  -0.146643  0.0
0.778478  -0.148159  0.0
0.469384  -0.143818  0.0
0.478997  -0.140157  0.0
0.462041  -0.139087  0.0
0.470281  -0.141041  0.0
0.487169  -0.136307  0.0
0.494831  -0.132348  0.0
0.477873  -0.131493  0.0
0.486645  -0.133394  0.0
0.453533  -0.134317  0.0
0.460964  -0.13053  0.0
0.444113  -0.129458  0.0
0.452892  -0.131458  0.0
0.469729  -0.132481  0.0
0.462088  -0.13628  0.0
0.478881  -0.137296  0.0
0.470212  -0.135372  0.0
0.408469  -0.139356  0.0
0.414185  -0.13569  0.0
0.397075  -0.134184  0.0
0.406491  -0.136421  0.0
0.420426  -0.131991  0.0
0.427292  -0.128275  0.0
0.410444  -0.126955  0.0
0.419349  -0.129087  0.0
0.38674  -0.12903  0.0
0.393567  -0.125479  0.0
0.376686  -0.123836  0.0
0.385661  -0.126132  0.0
0.402518  -0.127692  0.0
0.395766  -0.131285  0.0
0.412641  -0.132768  0.0
0.403638  -0.1306  0.0
0.436123  -0.130333  0.0
0.429282  -0.134042  0.0
0.445668  -0.135179  0.0
0.437036  -0.133195  0.0
0.423644  -0.137815  0.0
0.426351  -0.14082  0.0
0.400396  -0.139984  0.0
0.418869  -0.14163  0.0
0.454221  -0.139726  0.0
0.452449  -0.142459  0.0
0.443034  -0.141802  0.0
0.459372  -0.144599  0.0
0.43725  -0.143053  0.0
0.446405  -0.13778  0.0
0.430957  -0.136943  0.0
0.439447  -0.138698  0.0
0.3367  -0.13121  0.0
0.345648  -0.128467  0.0
0.328895  -0.126111  0.0
0.337255  -0.128642  0.0
0.352997  -0.12534  0.0
0.359799  -0.122011  0.0
0.342917  -0.119989  0.0
0.351929  -0.12247  0.0
0.319589  -0.120811  0.0
0.326055  -0.117752  0.0
0.309214  -0.115291  0.0
0.318309  -0.117988  0.0
0.335097  -0.120338  0.0
0.328401  -0.123416  0.0
0.34505  -0.1257  0.0
0.336163  -0.123179  0.0
0.276492  -0.121161  0.0
0.281318  -0.118373  0.0
0.264189  -0.114999  0.0
0.273947  -0.118202  0.0
0.286528  -0.115494  0.0
0.292355  -0.112589  0.0
0.275411  -0.109599  0.0
0.284726  -0.112583  0.0
0.252643  -0.108858  0.0
0.258376  -0.10629  0.0
0.241268  -0.102637  0.0
0.250757  -0.105961  0.0
0.267788  -0.10944  0.0
0.262135  -0.112099  0.0
0.279086  -0.115423  0.0
0.269661  -0.112352  0.0
0.30155  -0.115417  0.0
0.295747  -0.118355  0.0
0.312085  -0.120969  0.0
0.30314  -0.118271  0.0
0.291065  -0.12139  0.0
0.29423  -0.12448  0.0
0.268733  -0.120774  0.0
0.287029  -0.124421  0.0
0.321365  -0.12607  0.0
0.319993  -0.128501  0.0
0.305175  -0.127649  0.0
0.326967  -0.13111  0.0
0.310684  -0.12704  0.0
0.313367  -0.123533  0.0
0.298051  -0.1213  0.0
0.306726  -0.123781  0.0
0.368795  -0.124397  0.0
0.36193  -0.127765  0.0
0.378828  -0.129618  0.0
0.369859  -0.127281  0.0
0.354392  -0.130924  0.0
0.354462  -0.133604  0.0
0.345163  -0.133715  0.0
0.363503  -0.136043  0.0
0.372414  -0.135741  0.0
0.389101  -0.13479  0.0
0.390444  -0.137655  0.0
0.381929  -0.138126  0.0
0.37988  -0.13248  0.0
0.362727  -0.130582  0.0
0.371708  -0.13296  0.0
0.205522  -0.103557  0.0
0.212529  -0.102525  0.0
0.196399  -0.097678  0.0
0.20529  -0.101367  0.0
0.218427  -0.100745  0.0
0.224071  -0.098608  0.0
0.206792  -0.094166  0.0
0.21645  -0.097886  0.0
0.18437  -0.091043  0.0
0.189437  -0.089286  0.0
0.171934  -0.083913  0.0
0.181869  -0.088123  0.0
0.199206  -0.093231  0.0
0.194076  -0.095042  0.0
0.210907  -0.099861  0.0
0.201345  -0.096067  0.0
0.142082  -0.081471  0.0
0.145397  -0.080451  0.0
0.126893  -0.072904  0.0
0.13806  -0.078342  0.0
0.14937  -0.079216  0.0
0.154213  -0.077962  0.0
0.136237  -0.071354  0.0
0.146534  -0.076213  0.0
0.112766  -0.064365  0.0
0.117986  -0.064014  0.0
0.099473  -0.055863  0.0
0.110009  -0.061462  0.0
0.128424  -0.069233  0.0
0.12358  -0.069889  0.0
0.141909  -0.077329  0.0
0.13126  -0.072204  0.0
0.164336  -0.082483  0.0
0.159827  -0.083968  0.0
0.177212  -0.089836  0.0
0.167113  -0.085487  0.0
0.156489  -0.085537  0.0
0.160968  -0.088896  0.0
0.134494  -0.078883  0.0
0.153897  -0.08694  0.0
0.190282  -0.096857  0.0
0.191492  -0.100392  0.0
0.172921  -0.094088  0.0
0.195989  -0.100672  0.0
0.179318  -0.095425  0.0
0.180801  -0.093014  0.0
0.163458  -0.087167  0.0
0.174334  -0.091863  0.0
0.061257  -0.040742  0.0
0.068372  -0.044026  0.0
0.048892  -0.032512  0.0
0.059869  -0.039528  0.0
0.0746  -0.045746  0.0
0.080699  -0.046812  0.0
0.061771  -0.036837  0.0
0.072268  -0.043162  0.0
0.035891  -0.023118  0.0
0.043004  -0.026111  0.0
0.025108  -0.015219  0.0
0.034396  -0.02131  0.0
0.05316  -0.032581  0.0
0.046452  -0.030171  0.0
0.066055  -0.041673  0.0
0.055112  -0.034833  0.0
0.009104  -0.005762  0.0
0.003644  -0.002238  0.0
0.017689  -0.010853  0.0
0.026566  -0.017313  0.0
0.01765  -0.01114  0.0
0.00546  -0.003524  0.0
0.005116  -0.003379  0.0
0.041288  -0.028112  0.0
0.049223  -0.033346  0.0
0.01691  -0.011503  0.0
0.043791  -0.0298  0.0
0.028413  -0.019534  0.0
0.029522  -0.019966  0.0
0.010576  -0.006903  0.0
0.022079  -0.014935  0.0
0.091283  -0.052803  0.0
0.085619  -0.052175  0.0
0.104819  -0.061545  0.0
0.093871  -0.055583  0.0
0.079638  -0.050734  0.0
0.082095  -0.052723  0.0
0.072217  -0.047229  0.0
0.093898  -0.05929  0.0
0.119134  -0.070233  0.0
0.114554  -0.06974  0.0
0.122714  -0.073082  0.0
0.102747  -0.063563  0.0
0.107874  -0.064398  0.0
0.088341  -0.05481  0.0
0.099647  -0.06107  0.0
0.233645  -0.102122  0.0
0.22796  -0.104343  0.0
0.245066  -0.10841  0.0
0.235557  -0.104999  0.0
0.221727  -0.106154  0.0
0.222623  -0.108588  0.0
0.213658  -0.107149  0.0
0.231993  -0.112168  0.0
0.256551  -0.114586  0.0
0.250377  -0.116701  0.0
0.240548  -0.113218  0.0
0.25855  -0.117402  0.0
0.24692  -0.111238  0.0
0.229637  -0.107088  0.0
0.239089  -0.110572  0.0
0.503617  -0.134204  0.0
0.495926  -0.138182  0.0
0.513007  -0.13896  0.0
0.504187  -0.137126  0.0
0.487665  -0.142055  0.0
0.496599  -0.146765  0.0
0.477899  -0.145759  0.0
0.487464  -0.144879  0.0
0.522891  -0.143685  0.0
0.524092  -0.146594  0.0
0.51539  -0.147649  0.0
0.513695  -0.141869  0.0
0.505749  -0.145794  0.0
0.496306  -0.141069  0.0
0.505254  -0.142923  0.0
0.99521  -0.109166  0.0
0.990945  -0.101366  0.0
0.98279  -0.097211  0.0
0.97619  -0.092426  0.0
0.983507  -0.094143  0.0
0.99519  -0.090811  0.0
0.990897  -0.082932  0.0
0.967149  -0.087766  0.0
0.97528  -0.083136  0.0
0.958434  -0.083171  0.0
0.967007  -0.084683  0.0
0.982724  -0.084473  0.0
0.976165  -0.0893  0.0
0.99164  -0.088069  0.0
0.983466  -0.087554  0.0
0.995168  -0.072274  0.0
0.990864  -0.064324  0.0
0.949709  -0.078543  0.0
0.958468  -0.073894  0.0
0.940889  -0.073894  0.0
0.949678  -0.075446  0.0
0.967009  -0.0692  0.0
0.97518  -0.064527  0.0
0.958258  -0.064562  0.0
0.966871  -0.066089  0.0
0.932019  -0.069236  0.0
0.940759  -0.064568  0.0
0.923133  -0.064568  0.0
0.931971  -0.066125  0.0
0.949564  -0.066121  0.0
0.940847  -0.070789  0.0
0.958436  -0.070784  0.0
0.949604  -0.069232  0.0
0.98266  -0.065878  0.0
0.976062  -0.070745  0.0
0.991608  -0.069505  0.0
0.983404  -0.068984  0.0
0.96706  -0.075465  0.0
0.958406  -0.080087  0.0
0.975269  -0.080097  0.0
0.966968  -0.078561  0.0
0.996433  -0.07815  0.0
0.9916  -0.075068  0.0
0.99645  -0.084968  0.0
0.99088  -0.080232  0.0
0.982696  -0.078734  0.0
0.976082  -0.0739  0.0
0.983416  -0.075633  0.0
0.996466  -0.096627  0.0
0.991656  -0.09358  0.0
0.996472  -0.103381  0.0
0.990939  -0.098691  0.0
0.914231  -0.059889  0.0
0.92299  -0.055203  0.0
0.905314  -0.055201  0.0
0.914178  -0.056766  0.0
0.931768  -0.050507  0.0
0.940555  -0.045803  0.0
0.922863  -0.045803  0.0
0.93173  -0.047372  0.0
0.896386  -0.050505  0.0
0.905158  -0.045802  0.0
0.887449  -0.045799  0.0
0.89633  -0.04737  0.0
0.914033  -0.047371  0.0
0.90526  -0.052072  0.0
0.922946  -0.052073  0.0
0.914079  -0.050506  0.0
0.949346  -0.041094  0.0
0.958186  -0.036375  0.0
0.94048  -0.036374  0.0
0.94933  -0.03795  0.0
0.966813  -0.031617  0.0
0.975054  -0.026883  0.0
0.958019  -0.026914  0.0
0.966692  -0.028463  0.0
0.931578  -0.031649  0.0
0.940407  -0.02692  0.0
0.922672  -0.026919  0.0
0.931553  -0.028496  0.0
0.94926  -0.028493  0.0
0.940455  -0.033225  0.0
0.958163  -0.03322  0.0
0.949283  -0.031646  0.0
0.878504  -0.041086  0.0
0.887292  -0.03637  0.0
0.869554  -0.036367  0.0
0.878449  -0.037942  0.0
0.896099  -0.031647  0.0
0.904923  -0.026919  0.0
0.887168  -0.026917  0.0
0.896063  -0.028495  0.0
0.860601  -0.031641  0.0
0.86941  -0.026914  0.0
0.851647  -0.02691  0.0
0.860552  -0.028489  0.0
0.878309  -0.028493  0.0
0.869501  -0.033218  0.0
0.887247  -0.033221  0.0
0.878352  -0.031645  0.0
0.913812  -0.028496  0.0
0.904989  -0.033223  0.0
0.922727  -0.033225  0.0
0.913842  -0.031649  0.0
0.896182  -0.037945  0.0
0.887393  -0.042659  0.0
0.905111  -0.042662  0.0
0.896228  -0.041089  0.0
0.931633  -0.037947  0.0
0.922825  -0.042663  0.0
0.940525  -0.042663  0.0
0.931662  -0.041092  0.0
0.913949  -0.041091  0.0
0.922757  -0.036373  0.0
0.905026  -0.036372  0.0
0.91391  -0.037946  0.0
0.982541  -0.02239  0.0
0.975868  -0.017462  0.0
0.983277  -0.019232  0.0
0.995127  -0.015819  0.0
0.990793  -0.007728  0.0
0.966743  -0.012671  0.0
0.974997  -0.007925  0.0
0.957958  -0.007957  0.0
0.966619  -0.009508  0.0
0.982521  -0.0093  0.0
0.975863  -0.014249  0.0
0.991535  -0.012997  0.0
0.983263  -0.012461  0.0
0.995124  0.003156  0.0
0.990799  0.011247  0.0
0.949183  -0.00322  0.0
0.958078  0.001526  0.0
0.940334  0.001527  0.0
0.949188  -5.7e-05  0.0
0.966737  0.006306  0.0
0.975004  0.011053  0.0
0.957962  0.011022  0.0
0.966623  0.00947  0.0
0.931455  0.006273  0.0
0.940338  0.011017  0.0
0.922585  0.011016  0.0
0.93146  0.009436  0.0
0.949186  0.009439  0.0
0.940335  0.004691  0.0
0.958077  0.004695  0.0
0.949188  0.006277  0.0
0.982531  0.009678  0.0
0.975856  0.00473  0.0
0.991537  0.005981  0.0
0.983269  0.006519  0.0
0.96674  -7.8e-05  0.0
0.957957  -0.0048  0.0
0.975003  -0.004814  0.0
0.966623  -0.00324  0.0
0.996396  -0.002842  0.0
0.99152  0.000311  0.0
0.996408  -0.009822  0.0
0.990782  -0.004965  0.0
0.982515  -0.003425  0.0
0.975858  0.001515  0.0
0.983253  -0.000258  0.0
0.842695  -0.022175  0.0
0.85153  -0.017441  0.0
0.833748  -0.017437  0.0
0.842657  -0.019018  0.0
0.860382  -0.012702  0.0
0.869248  -0.007961  0.0
0.851462  -0.00796  0.0
0.860363  -0.009541  0.0
0.824807  -0.012697  0.0
0.833672  -0.007958  0.0
0.815875  -0.007955  0.0
0.824783  -0.009537  0.0
0.842576  -0.009539  0.0
0.833716  -0.014278  0.0
0.851502  -0.014281  0.0
0.842597  -0.0127  0.0
0.878127  -0.003217  0.0
0.887016  0.001527  0.0
0.869233  0.001527  0.0
0.878124  -5.4e-05  0.0
0.895913  0.006272  0.0
0.904816  0.011016  0.0
0.887041  0.011015  0.0
0.895923  0.009434  0.0
0.86035  0.006271  0.0
0.869262  0.011014  0.0
0.851479  0.011012  0.0
0.860363  0.009432  0.0
0.878145  0.009434  0.0
0.869238  0.00469  0.0
0.88702  0.00469  0.0
0.878134  0.006271  0.0
0.806955  -0.003214  0.0
0.815854  0.001526  0.0
0.798049  0.001525  0.0
0.806951  -5.4e-05  0.0
0.824766  0.006268  0.0
0.83369  0.01101  0.0
0.815896  0.011006  0.0
0.824783  0.009428  0.0
0.789159  0.006262  0.0
0.798095  0.011001  0.0
0.780288  0.010995  0.0
0.789179  0.00942  0.0
0.806984  0.009425  0.0
0.798056  0.004684  0.0
0.815861  0.004686  0.0
0.806966  0.006265  0.0
0.842575  0.009431  0.0
0.833659  0.004688  0.0
0.851451  0.004689  0.0
0.842561  0.006269  0.0
0.824753  -5.4e-05  0.0
0.815861  -0.004795  0.0
0.833659  -0.004797  0.0
0.824756  -0.003216  0.0
0.860339  -5.4e-05  0.0
0.851451  -0.004798  0.0
0.869238  -0.004799  0.0
0.860342  -0.003217  0.0
0.842552  -0.003216  0.0
0.851445  0.001527  0.0
0.833652  0.001526  0.0
0.842549  -5.4e-05  0.0
0.913696  0.009435  0.0
0.904798  0.004691  0.0
0.922572  0.004691  0.0
0.913688  0.006272  0.0
0.895905  -5.4e-05  0.0
0.88702  -0.004799  0.0
0.904798  -0.004799  0.0
0.895907  -0.003218  0.0
0.931451  -5.5e-05  0.0
0.922571  -0.0048  0.0
0.940329  -0.0048  0.0
0.931451  -0.003218  0.0
0.913684  -0.003218  0.0
0.922569  0.001527  0.0
0.904795  0.001527  0.0
0.913682  -5.4e-05  0.0
0.878145  -0.009542  0.0
0.869283  -0.014284  0.0
0.887059  -0.014285  0.0
0.878162  -0.012704  0.0
0.860435  -0.019022  0.0
0.851603  -0.023755  0.0
0.869371  -0.023759  0.0
0.860469  -0.022179  0.0
0.895976  -0.019026  0.0
0.887135  -0.023761  0.0
0.904895  -0.023763  0.0
0.896001  -0.022184  0.0
0.878237  -0.022182  0.0
0.88708  -0.017445  0.0
0.869307  -0.017443  0.0
0.878207  -0.019024  0.0
0.949188  -0.00954  0.0
0.940356  -0.014286  0.0
0.958095  -0.014281  0.0
0.9492  -0.012702  0.0
0.931499  -0.019027  0.0
0.922649  -0.023764  0.0
0.940392  -0.023764  0.0
0.931514  -0.022186  0.0
0.96675  -0.019051  0.0
0.957998  -0.023764  0.0
0.975027  -0.023778  0.0
0.966644  -0.022209  0.0
0.949223  -0.022188  0.0
0.958096  -0.017448  0.0
0.940369  -0.017447  0.0
0.949215  -0.019029  0.0
0.913761  -0.022185  0.0
0.922613  -0.017447  0.0
0.904849  -0.017446  0.0
0.91374  -0.019027  0.0
0.931471  -0.012706  0.0
0.940333  -0.007962  0.0
0.922577  -0.007963  0.0
0.931461  -0.009544  0.0
0.895937  -0.012705  0.0
0.904806  -0.007962  0.0
0.887029  -0.007962  0.0
0.895923  -0.009543  0.0
0.913696  -0.009544  0.0
0.904831  -0.014286  0.0
0.922598  -0.014287  0.0
0.913708  -0.012706  0.0
0.996416  -0.021804  0.0
0.991544  -0.018661  0.0
0.99641  -0.028767  0.0
0.990808  -0.023924  0.0
0.982562  -0.028252  0.0
0.975919  -0.033185  0.0
0.991546  -0.031931  0.0
0.983306  -0.0314  0.0
0.96684  -0.03797  0.0
0.958107  -0.042664  0.0
0.975099  -0.042677  0.0
0.966745  -0.041115  0.0
0.996408  -0.040707  0.0
0.991544  -0.037576  0.0
0.996423  -0.047636  0.0
0.990814  -0.042819  0.0
0.982578  -0.041293  0.0
0.975923  -0.036383  0.0
0.983308  -0.038145  0.0
0.949393  -0.047369  0.0
0.940625  -0.052073  0.0
0.958285  -0.052069  0.0
0.949425  -0.050504  0.0
0.931845  -0.056767  0.0
0.923083  -0.06145  0.0
0.940723  -0.061451  0.0
0.931885  -0.05989  0.0
0.966935  -0.056787  0.0
0.958233  -0.06145  0.0
0.975172  -0.061461  0.0
0.966838  -0.05991  0.0
0.949503  -0.059892  0.0
0.958306  -0.055203  0.0
0.940658  -0.055203  0.0
0.949479  -0.056768  0.0
0.996425  -0.059501  0.0
0.991576  -0.056396  0.0
0.99644  -0.06638  0.0
0.990849  -0.0616  0.0
0.982637  -0.060087  0.0
0.975996  -0.055214  0.0
0.983364  -0.056963  0.0
0.995151  -0.053579  0.0
0.990829  -0.045562  0.0
0.966881  -0.050472  0.0
0.975089  -0.045765  0.0
0.958124  -0.0458  0.0
0.966752  -0.047338  0.0
0.982583  -0.047125  0.0
0.975963  -0.052033  0.0
0.991573  -0.050787  0.0
0.983328  -0.050259  0.0
0.995136  -0.034743  0.0
0.990802  -0.026681  0.0
0.771439  0.015723  0.0
0.780415  0.020459  0.0
0.762612  0.020445  0.0
0.771487  0.018877  0.0
0.789401  0.025194  0.0
0.798394  0.029927  0.0
0.780615  0.029911  0.0
0.789468  0.028345  0.0
0.753811  0.025159  0.0
0.76283  0.02989  0.0
0.745038  0.029865  0.0
0.753892  0.028306  0.0
0.771683  0.028328  0.0
0.762676  0.023595  0.0
0.780473  0.023612  0.0
0.771609  0.025179  0.0
0.807391  0.034655  0.0
0.81639  0.039379  0.0
0.798641  0.039364  0.0
0.807473  0.037801  0.0
0.825389  0.044097  0.0
0.834384  0.048808  0.0
0.816668  0.048795  0.0
0.825479  0.047235  0.0
0.789917  0.044064  0.0
0.798948  0.048777  0.0
0.781222  0.048753  0.0
0.790028  0.047199  0.0
0.807756  0.047219  0.0
0.798737  0.042505  0.0
0.816477  0.042521  0.0
0.807656  0.044083  0.0
0.736295  0.03456  0.0
0.745357  0.039285  0.0
0.727583  0.039244  0.0
0.73641  0.037698  0.0
0.754423  0.044006  0.0
0.763491  0.048722  0.0
0.745754  0.048683  0.0
0.754554  0.047139  0.0
0.718905  0.043916  0.0
0.728011  0.048634  0.0
0.710262  0.048574  0.0
0.719058  0.047043  0.0
0.736809  0.047096  0.0
0.727717  0.042377  0.0
0.745481  0.042421  0.0
0.736667  0.043966  0.0
0.772294  0.047173  0.0
0.763239  0.042456  0.0
0.780991  0.042483  0.0
0.772173  0.044038  0.0
0.754185  0.037733  0.0
0.745136  0.033007  0.0
0.76292  0.033035  0.0
0.754079  0.034593  0.0
0.789716  0.037784  0.0
0.780698  0.033058  0.0
0.798469  0.033075  0.0
0.789626  0.03464  0.0
0.771856  0.034619  0.0
0.780886  0.039344  0.0
0.763124  0.039318  0.0
0.771954  0.037762  0.0
0.843373  0.053511  0.0
0.852355  0.058205  0.0
0.834677  0.058195  0.0
0.843467  0.056638  0.0
0.861326  0.06289  0.0
0.870285  0.067565  0.0
0.852647  0.067557  0.0
0.861419  0.066006  0.0
0.826006  0.062868  0.0
0.835006  0.067546  0.0
0.817363  0.06753  0.0
0.826124  0.065983  0.0
0.843773  0.065996  0.0
0.834783  0.061316  0.0
0.852449  0.061327  0.0
0.843668  0.062881  0.0
0.87923  0.072229  0.0
0.888159  0.076882  0.0
0.870563  0.076877  0.0
0.879317  0.075331  0.0
0.89707  0.081524  0.0
0.905963  0.086155  0.0
0.88841  0.086152  0.0
0.897148  0.084612  0.0
0.86192  0.081514  0.0
0.870856  0.086147  0.0
0.853301  0.086138  0.0
0.862026  0.084601  0.0
0.879587  0.084608  0.0
0.870659  0.079972  0.0
0.888241  0.079977  0.0
0.879496  0.081521  0.0
0.808747  0.07218  0.0
0.817764  0.07684  0.0
0.80016  0.076816  0.0
0.80889  0.07528  0.0
0.826764  0.081489  0.0
0.835746  0.086125  0.0
0.81819  0.086107  0.0
0.8269  0.084576  0.0
0.791602  0.08144  0.0
0.800632  0.086082  0.0
0.783074  0.086048  0.0
0.791769  0.084525  0.0
0.809335  0.084554  0.0
0.800315  0.07991  0.0
0.817904  0.079934  0.0
0.809184  0.081468  0.0
0.844463  0.084591  0.0
0.835491  0.079952  0.0
0.853076  0.079964  0.0
0.844343  0.081504  0.0
0.8265  0.075301  0.0
0.817493  0.070638  0.0
0.835123  0.070654  0.0
0.826372  0.072199  0.0
0.861713  0.075325  0.0
0.852751  0.070666  0.0
0.870375  0.070674  0.0
0.861613  0.072223  0.0
0.843993  0.072213  0.0
0.852965  0.076869  0.0
0.835366  0.076857  0.0
0.844108  0.075315  0.0
0.701656  0.053218  0.0
0.710804  0.05793  0.0
0.693088  0.057846  0.0
0.701848  0.056333  0.0
0.71995  0.062634  0.0
0.729088  0.06733  0.0
0.711421  0.067254  0.0
0.720151  0.065742  0.0
0.684559  0.062457  0.0
0.693749  0.067162  0.0
0.676072  0.067051  0.0
0.684792  0.065559  0.0
0.702474  0.065659  0.0
0.6933  0.060955  0.0
0.711002  0.061041  0.0
0.702257  0.062554  0.0
0.738217  0.072016  0.0
0.747333  0.076691  0.0
0.729718  0.076625  0.0
0.738422  0.075113  0.0
0.756433  0.081354  0.0
0.765514  0.086005  0.0
0.747953  0.085949  0.0
0.756633  0.084438  0.0
0.721254  0.081217  0.0
0.73039  0.085879  0.0
0.712826  0.085792  0.0
0.721489  0.084299  0.0
0.739062  0.084376  0.0
0.729938  0.079714  0.0
0.747536  0.079782  0.0
0.738845  0.081293  0.0
0.667626  0.071625  0.0
0.676853  0.076323  0.0
0.659224  0.076179  0.0
0.667899  0.074712  0.0
0.686065  0.081011  0.0
0.69526  0.085687  0.0
0.677693  0.085559  0.0
0.686338  0.084089  0.0
0.650865  0.080713  0.0
0.660123  0.085406  0.0
0.642551  0.085225  0.0
0.651178  0.083785  0.0
0.66876  0.08395  0.0
0.659517  0.079259  0.0
0.677127  0.079406  0.0
0.668467  0.080875  0.0
0.703915  0.084204  0.0
0.694733  0.079529  0.0
0.712337  0.079631  0.0
0.703661  0.081124  0.0
0.685535  0.074843  0.0
0.676324  0.070145  0.0
0.693985  0.07026  0.0
0.68528  0.071752  0.0
0.720796  0.07504  0.0
0.711641  0.070355  0.0
0.729292  0.070433  0.0
0.720575  0.071945  0.0
0.70293  0.071858  0.0
0.712099  0.076543  0.0
0.694478  0.076444  0.0
0.703168  0.074951  0.0
0.774201  0.084487  0.0
0.765131  0.079835  0.0
0.782724  0.079877  0.0
0.774019  0.081402  0.0
0.756043  0.075171  0.0
0.74694  0.070495  0.0
0.764584  0.070546  0.0
0.755855  0.072073  0.0
0.791277  0.075253  0.0
0.782224  0.070585  0.0
0.79986  0.070615  0.0
0.79112  0.072153  0.0
0.773489  0.072118  0.0
0.782554  0.076785  0.0
0.764945  0.076743  0.0
0.773662  0.075217  0.0
0.737824  0.065809  0.0
0.728699  0.061112  0.0
0.746392  0.06117  0.0
0.737637  0.062699  0.0
0.719568  0.056408  0.0
0.710434  0.051696  0.0
0.728171  0.051759  0.0
0.719389  0.053289  0.0
0.754993  0.056517  0.0
0.745902  0.05181  0.0
0.763628  0.051851  0.0
0.75484  0.053394  0.0
0.737117  0.053347  0.0
0.746221  0.058054  0.0
0.728516  0.057998  0.0
0.737283  0.056468  0.0
0.808472  0.065964  0.0
0.799439  0.06128  0.0
0.817113  0.061301  0.0
0.808341  0.06285  0.0
0.790397  0.056586  0.0
0.781347  0.051883  0.0
0.799062  0.051908  0.0
0.790268  0.05346  0.0
0.825782  0.056626  0.0
0.816772  0.051927  0.0
0.834477  0.051941  0.0
0.825676  0.053499  0.0
0.807974  0.053483  0.0
0.816995  0.05818  0.0
0.799308  0.05816  0.0
0.808091  0.056609  0.0
0.772556  0.053431  0.0
0.781618  0.058133  0.0
0.763922  0.058098  0.0
0.772697  0.056556  0.0
0.790671  0.062825  0.0
0.799716  0.067508  0.0
0.782065  0.067478  0.0
0.790816  0.065939  0.0
0.75532  0.062751  0.0
0.76441  0.06744  0.0
0.746751  0.067391  0.0
0.755493  0.065863  0.0
0.773157  0.065905  0.0
0.764079  0.061216  0.0
0.781761  0.061252  0.0
0.772998  0.062793  0.0
0.914837  0.090774  0.0
0.92369  0.095382  0.0
0.906179  0.09538  0.0
0.914902  0.093847  0.0
0.93252  0.099978  0.0
0.941321  0.104563  0.0
0.923861  0.104562  0.0
0.932569  0.103036  0.0
0.897541  0.099974  0.0
0.906392  0.10456  0.0
0.888923  0.104556  0.0
0.897618  0.103031  0.0
0.915095  0.103034  0.0
0.90625  0.098445  0.0
0.923747  0.098447  0.0
0.915031  0.099977  0.0
0.950087  0.109135  0.0
0.958867  0.113699  0.0
0.941453  0.1137  0.0
0.950129  0.112178  0.0
0.967405  0.118282  0.0
0.975534  0.122826  0.0
0.958828  0.122802  0.0
0.967318  0.121314  0.0
0.932806  0.118253  0.0
0.94156  0.122797  0.0
0.924175  0.122794  0.0
0.932848  0.121283  0.0
0.950216  0.121287  0.0
0.941492  0.116737  0.0
0.958888  0.11674  0.0
0.950189  0.118257  0.0
0.880324  0.109125  0.0
0.889167  0.11369  0.0
0.871742  0.113682  0.0
0.880411  0.112168  0.0
0.897987  0.118245  0.0
0.906782  0.12279  0.0
0.889392  0.122783  0.0
0.898054  0.121274  0.0
0.863176  0.118227  0.0
0.872005  0.122773  0.0
0.854624  0.122759  0.0
0.863269  0.121254  0.0
0.880659  0.121266  0.0
0.871833  0.116717  0.0
0.889245  0.116726  0.0
0.880579  0.118238  0.0
0.915452  0.121279  0.0
0.90666  0.116731  0.0
0.924078  0.116735  0.0
0.915397  0.11825  0.0
0.897845  0.112174  0.0
0.889006  0.107606  0.0
0.906461  0.10761  0.0
0.897771  0.109131  0.0
0.932716  0.112179  0.0
0.923917  0.107612  0.0
0.941363  0.107613  0.0
0.932667  0.109136  0.0
0.91522  0.109135  0.0
0.924026  0.113699  0.0
0.906596  0.113696  0.0
0.915281  0.112178  0.0
0.982898  0.127123  0.0
0.97639  0.131837  0.0
0.98363  0.13014  0.0
0.995234  0.133376  0.0
0.991009  0.141075  0.0
0.967494  0.136405  0.0
0.975584  0.14089  0.0
0.958936  0.140865  0.0
0.967393  0.139399  0.0
0.982927  0.139591  0.0
0.976401  0.134899  0.0
0.991725  0.136072  0.0
0.983642  0.136594  0.0
0.995258  0.151037  0.0
0.950334  0.145245  0.0
0.959262  0.149363  0.0
0.94119  0.149384  0.0
0.950276  0.148032  0.0
0.969491  0.153174  0.0
0.940672  0.151955  0.0
0.950059  0.15318  0.0
0.959563  0.15194  0.0
0.967823  0.147972  0.0
0.988588  0.153038  0.0
0.978087  0.151794  0.0
0.95897  0.143798  0.0
0.97563  0.143753  0.0
0.967472  0.145194  0.0
0.996485  0.145647  0.0
0.991743  0.148269  0.0
0.99649  0.139085  0.0
0.991004  0.143628  0.0
0.982967  0.145007  0.0
0.97672  0.149169  0.0
0.983706  0.147645  0.0
0.846083  0.127278  0.0
0.85489  0.131807  0.0
0.837552  0.131784  0.0
0.846176  0.130291  0.0
0.863683  0.136324  0.0
0.872518  0.140811  0.0
0.855184  0.140795  0.0
0.863793  0.139314  0.0
0.829028  0.136273  0.0
0.837833  0.140767  0.0
0.82049  0.140731  0.0
0.829117  0.139261  0.0
0.846452  0.139293  0.0
0.837645  0.134789  0.0
0.854975  0.134813  0.0
0.846353  0.136302  0.0
0.88164  0.145159  0.0
0.891262  0.149038  0.0
0.874775  0.149289  0.0
0.882723  0.147913  0.0
0.911276  0.153129  0.0
0.868864  0.153117  0.0
0.858231  0.151879  0.0
0.888174  0.153098  0.0
0.811798  0.145083  0.0
0.894489  0.151646  0.0
0.877  0.151866  0.0
0.8205  0.149234  0.0
0.802383  0.149173  0.0
0.811595  0.147861  0.0
0.83001  0.15304  0.0
0.810591  0.152972  0.0
0.8015  0.151727  0.0
0.820379  0.151791  0.0
0.839317  0.151844  0.0
0.849449  0.153079  0.0
0.829487  0.147915  0.0
0.820543  0.143664  0.0
0.837989  0.143697  0.0
0.829327  0.145123  0.0
0.865243  0.147964  0.0
0.85546  0.143721  0.0
0.872842  0.14374  0.0
0.864393  0.14517  0.0
0.846885  0.145149  0.0
0.856835  0.149304  0.0
0.838673  0.149277  0.0
0.847409  0.147937  0.0
0.904272  0.151662  0.0
0.921882  0.151917  0.0
0.898748  0.147696  0.0
0.9306  0.153181  0.0
0.890009  0.143714  0.0
0.907031  0.143721  0.0
0.898577  0.145127  0.0
0.932439  0.148025  0.0
0.924212  0.143768  0.0
0.941637  0.143793  0.0
0.932828  0.145221  0.0
0.915528  0.145172  0.0
0.923204  0.149333  0.0
0.906583  0.14905  0.0
0.914909  0.147933  0.0
0.881113  0.139327  0.0
0.872311  0.134831  0.0
0.88965  0.134843  0.0
0.881016  0.136338  0.0
0.863523  0.130311  0.0
0.854717  0.125779  0.0
0.872086  0.125794  0.0
0.863443  0.127296  0.0
0.898237  0.130336  0.0
0.88946  0.125805  0.0
0.906839  0.125813  0.0
0.898179  0.127319  0.0
0.880808  0.127309  0.0
0.889587  0.131837  0.0
0.872236  0.131824  0.0
0.880878  0.130325  0.0
0.950355  0.139372  0.0
0.941687  0.134868  0.0
0.959029  0.134875  0.0
0.950346  0.136375  0.0
0.932968  0.130348  0.0
0.924221  0.125818  0.0
0.941597  0.125821  0.0
0.93293  0.12733  0.0
0.967457  0.130326  0.0
0.958844  0.125821  0.0
0.975528  0.125801  0.0
0.967328  0.127308  0.0
0.950268  0.12733  0.0
0.959004  0.131858  0.0
0.941665  0.131857  0.0
0.950299  0.130348  0.0
0.915555  0.127326  0.0
0.924305  0.131854  0.0
0.906943  0.131847  0.0
0.915601  0.130343  0.0
0.933021  0.136367  0.0
0.941691  0.140852  0.0
0.924346  0.140843  0.0
0.933016  0.139355  0.0
0.898345  0.136348  0.0
0.907062  0.140824  0.0
0.889805  0.140811  0.0
0.898403  0.139327  0.0
0.915692  0.139351  0.0
0.906989  0.134853  0.0
0.924335  0.134862  0.0
0.915677  0.136358  0.0
0.634282  0.089713  0.0
0.643564  0.094402  0.0
0.626058  0.094178  0.0
0.634634  0.092768  0.0
0.652817  0.099075  0.0
0.662038  0.103732  0.0
0.644605  0.103534  0.0
0.653153  0.102118  0.0
0.61788  0.098617  0.0
0.627175  0.103302  0.0
0.609748  0.10303  0.0
0.618267  0.101654  0.0
0.635709  0.101904  0.0
0.626428  0.097224  0.0
0.643909  0.097451  0.0
0.635348  0.098864  0.0
0.671222  0.108372  0.0
0.680366  0.112995  0.0
0.663003  0.112822  0.0
0.67153  0.1114  0.0
0.689466  0.117601  0.0
0.69852  0.122191  0.0
0.681222  0.122039  0.0
0.689737  0.120614  0.0
0.654816  0.117248  0.0
0.663934  0.12186  0.0
0.646657  0.121648  0.0
0.655136  0.120256  0.0
0.672431  0.12045  0.0
0.663319  0.11584  0.0
0.680656  0.116016  0.0
0.672137  0.117439  0.0
0.60166  0.107415  0.0
0.610954  0.112097  0.0
0.593617  0.111772  0.0
0.602077  0.110433  0.0
0.6202  0.116759  0.0
0.629391  0.1214  0.0
0.612137  0.121111  0.0
0.620576  0.119762  0.0
0.585617  0.116098  0.0
0.594893  0.120777  0.0
0.57766  0.120392  0.0
0.586057  0.119095  0.0
0.603312  0.119452  0.0
0.594046  0.11478  0.0
0.611353  0.115108  0.0
0.602904  0.116452  0.0
0.637851  0.120028  0.0
0.628667  0.115391  0.0
0.645989  0.115634  0.0
0.637503  0.117022  0.0
0.619432  0.110734  0.0
0.61015  0.106058  0.0
0.62755  0.106332  0.0
0.619044  0.107713  0.0
0.654158  0.111213  0.0
0.644954  0.106568  0.0
0.662361  0.106768  0.0
0.653825  0.108187  0.0
0.636432  0.107969  0.0
0.645647  0.112617  0.0
0.628298  0.112377  0.0
0.636792  0.110992  0.0
0.707526  0.126765  0.0
0.716483  0.131324  0.0
0.699238  0.131191  0.0
0.70775  0.129763  0.0
0.725399  0.135866  0.0
0.734316  0.140373  0.0
0.717094  0.140258  0.0
0.725604  0.138838  0.0
0.690959  0.135589  0.0
0.699865  0.140116  0.0
0.682656  0.139945  0.0
0.691162  0.138556  0.0
0.708376  0.138711  0.0
0.699458  0.134177  0.0
0.716685  0.134314  0.0
0.708172  0.13574  0.0
0.743412  0.144739  0.0
0.752788  0.148636  0.0
0.736368  0.148801  0.0
0.74437  0.147479  0.0
0.77203  0.152784  0.0
0.729937  0.15256  0.0
0.719622  0.151269  0.0
0.738237  0.151368  0.0
0.755637  0.15124  0.0
0.674152  0.144177  0.0
0.749087  0.152649  0.0
0.682581  0.148363  0.0
0.664837  0.148103  0.0
0.673884  0.14692  0.0
0.672246  0.151965  0.0
0.66363  0.150621  0.0
0.682149  0.15089  0.0
0.691446  0.152208  0.0
0.70088  0.151101  0.0
0.710689  0.152396  0.0
0.691556  0.147137  0.0
0.682775  0.142853  0.0
0.700067  0.143023  0.0
0.691483  0.14437  0.0
0.727006  0.147434  0.0
0.717402  0.143165  0.0
0.734671  0.143284  0.0
0.726266  0.144656  0.0
0.708886  0.144526  0.0
0.71856  0.14871  0.0
0.700558  0.148557  0.0
0.709305  0.147293  0.0
0.569743  0.124653  0.0
0.578977  0.129329  0.0
0.561863  0.128877  0.0
0.570195  0.127627  0.0
0.588143  0.133978  0.0
0.597286  0.138586  0.0
0.580216  0.138179  0.0
0.588547  0.136923  0.0
0.554012  0.13306  0.0
0.563164  0.137713  0.0
0.546144  0.137182  0.0
0.554444  0.135995  0.0
0.571484  0.136491  0.0
0.562316  0.131837  0.0
0.579396  0.132293  0.0
0.571067  0.133549  0.0
0.606699  0.143082  0.0
0.617219  0.147317  0.0
0.599628  0.146976  0.0
0.607783  0.145831  0.0
0.636678  0.149969  0.0
0.619557  0.149882  0.0
0.592634  0.150514  0.0
0.538012  0.141155  0.0
0.611676  0.15094  0.0
0.601184  0.14952  0.0
0.546341  0.145461  0.0
0.528869  0.144778  0.0
0.537795  0.143843  0.0
0.535835  0.148732  0.0
0.52752  0.147205  0.0
0.54573  0.147922  0.0
0.554724  0.149418  0.0
0.573657  0.149999  0.0
0.564173  0.148538  0.0
0.58265  0.149068  0.0
0.55522  0.144457  0.0
0.54645  0.140051  0.0
0.563527  0.140585  0.0
0.555112  0.141735  0.0
0.590257  0.145441  0.0
0.580667  0.141056  0.0
0.597807  0.141475  0.0
0.589519  0.142689  0.0
0.572297  0.142239  0.0
0.581829  0.14654  0.0
0.564058  0.146039  0.0
0.572721  0.144971  0.0
0.630542  0.151298  0.0
0.646322  0.150129  0.0
0.624922  0.146112  0.0
0.653257  0.15168  0.0
0.614921  0.141822  0.0
0.63184  0.142089  0.0
0.623707  0.143366  0.0
0.656612  0.146624  0.0
0.648573  0.14235  0.0
0.665548  0.14263  0.0
0.657056  0.143895  0.0
0.640362  0.143615  0.0
0.648471  0.147592  0.0
0.633395  0.147348  0.0
0.640703  0.146128  0.0
0.605626  0.1373  0.0
0.596497  0.132691  0.0
0.613616  0.133037  0.0
0.605241  0.13435  0.0
0.587335  0.128048  0.0
0.578107  0.123378  0.0
0.595306  0.123766  0.0
0.586918  0.12507  0.0
0.621661  0.128733  0.0
0.612518  0.124103  0.0
0.629743  0.124395  0.0
0.621309  0.125749  0.0
0.604107  0.125434  0.0
0.613256  0.130068  0.0
0.596109  0.129724  0.0
0.604492  0.128414  0.0
0.673972  0.138373  0.0
0.665052  0.133822  0.0
0.682245  0.134015  0.0
0.673763  0.135409  0.0
0.65605  0.129245  0.0
0.64698  0.124646  0.0
0.66423  0.12486  0.0
0.655755  0.126255  0.0
0.690502  0.129619  0.0
0.681493  0.125043  0.0
0.698769  0.125196  0.0
0.690256  0.126623  0.0
0.672999  0.126454  0.0
0.682007  0.131031  0.0
0.664794  0.130843  0.0
0.673268  0.129447  0.0
0.638525  0.126021  0.0
0.647597  0.130623  0.0
0.630417  0.130367  0.0
0.638848  0.129009  0.0
0.656596  0.135199  0.0
0.665487  0.139734  0.0
0.648401  0.139498  0.0
0.656822  0.138147  0.0
0.622349  0.134674  0.0
0.631401  0.139232  0.0
0.614369  0.138929  0.0
0.622716  0.137616  0.0
0.639752  0.137906  0.0
0.630744  0.133338  0.0
0.647885  0.133598  0.0
0.639462  0.134955  0.0
0.765358  0.151299  0.0
0.782813  0.151623  0.0
0.760338  0.147338  0.0
0.791232  0.152909  0.0
0.751734  0.143344  0.0
0.768654  0.143422  0.0
0.760242  0.144785  0.0
0.793782  0.147792  0.0
0.785737  0.14353  0.0
0.803102  0.143607  0.0
0.794297  0.145003  0.0
0.777088  0.144897  0.0
0.784479  0.14906  0.0
0.768008  0.148717  0.0
0.776346  0.147639  0.0
0.742821  0.138941  0.0
0.733927  0.134427  0.0
0.751178  0.13452  0.0
0.742637  0.135968  0.0
0.725012  0.129884  0.0
0.716056  0.125325  0.0
0.733354  0.125432  0.0
0.724809  0.126884  0.0
0.759574  0.130067  0.0
0.750664  0.12552  0.0
0.767984  0.125592  0.0
0.759409  0.127062  0.0
0.742103  0.126982  0.0
0.751014  0.131528  0.0
0.733743  0.131435  0.0
0.742288  0.129984  0.0
0.81179  0.139221  0.0
0.803009  0.134714  0.0
0.820322  0.134756  0.0
0.811711  0.136234  0.0
0.794184  0.130189  0.0
0.785313  0.12565  0.0
0.802652  0.125695  0.0
0.794051  0.12718  0.0
0.828836  0.130265  0.0
0.819999  0.125731  0.0
0.837355  0.125759  0.0
0.828731  0.127253  0.0
0.811387  0.127221  0.0
0.820222  0.131753  0.0
0.802902  0.131715  0.0
0.811504  0.130231  0.0
0.776725  0.127128  0.0
0.785594  0.131666  0.0
0.768298  0.131604  0.0
0.776873  0.130135  0.0
0.794409  0.136187  0.0
0.803147  0.140678  0.0
0.785862  0.140619  0.0
0.794468  0.139163  0.0
0.759878  0.136054  0.0
0.768662  0.140541  0.0
0.751497  0.140457  0.0
0.760012  0.139017  0.0
0.777222  0.139105  0.0
0.768437  0.134598  0.0
0.785713  0.134663  0.0
0.777131  0.136126  0.0
0.707052  0.120752  0.0
0.698002  0.116163  0.0
0.715355  0.116285  0.0
0.706804  0.117737  0.0
0.688908  0.111558  0.0
0.679773  0.106936  0.0
0.697188  0.107078  0.0
0.688623  0.108528  0.0
0.723681  0.111798  0.0
0.714608  0.107195  0.0
0.732032  0.107292  0.0
0.723441  0.108765  0.0
0.70603  0.108657  0.0
0.71511  0.113261  0.0
0.697735  0.11314  0.0
0.706292  0.111689  0.0
0.670599  0.102298  0.0
0.66139  0.097644  0.0
0.678872  0.097806  0.0
0.670287  0.099253  0.0
0.65215  0.092973  0.0
0.642884  0.088288  0.0
0.660434  0.088473  0.0
0.651822  0.089915  0.0
0.687183  0.093293  0.0
0.677983  0.088628  0.0
0.69553  0.088758  0.0
0.686898  0.09023  0.0
0.66936  0.090086  0.0
0.678574  0.094752  0.0
0.661069  0.094592  0.0
0.669667  0.093147  0.0
0.740408  0.102766  0.0
0.731326  0.098147  0.0
0.748813  0.098222  0.0
0.740182  0.099714  0.0
0.722214  0.093514  0.0
0.713076  0.088866  0.0
0.730621  0.088954  0.0
0.72197  0.090447  0.0
0.757246  0.09366  0.0
0.748166  0.089025  0.0
0.765709  0.089082  0.0
0.75704  0.090591  0.0
0.739505  0.090527  0.0
0.748596  0.095161  0.0
0.73109  0.095088  0.0
0.73973  0.093595  0.0
0.704435  0.090349  0.0
0.713584  0.094997  0.0
0.696079  0.094886  0.0
0.704698  0.093414  0.0
0.722706  0.09963  0.0
0.731798  0.104249  0.0
0.714353  0.104154  0.0
0.722952  0.102681  0.0
0.687758  0.099403  0.0
0.696912  0.104038  0.0
0.679473  0.103899  0.0
0.688047  0.10245  0.0
0.705498  0.102576  0.0
0.696356  0.097942  0.0
0.71384  0.098055  0.0
0.705231  0.099528  0.0
0.845883  0.121238  0.0
0.837021  0.116687  0.0
0.854424  0.116705  0.0
0.845777  0.118212  0.0
0.828129  0.112125  0.0
0.819208  0.107551  0.0
0.836653  0.107572  0.0
0.827997  0.109084  0.0
0.86298  0.112158  0.0
0.854102  0.107588  0.0
0.871553  0.107599  0.0
0.862878  0.109116  0.0
0.845436  0.109103  0.0
0.85432  0.113671  0.0
0.836901  0.113654  0.0
0.845553  0.112144  0.0
0.810258  0.102964  0.0
0.801282  0.098365  0.0
0.818774  0.098392  0.0
0.810105  0.099909  0.0
0.792279  0.093752  0.0
0.783251  0.089126  0.0
0.800793  0.08916  0.0
0.792108  0.090682  0.0
0.827312  0.093805  0.0
0.818335  0.089186  0.0
0.835875  0.089205  0.0
0.827174  0.090734  0.0
0.809641  0.090712  0.0
0.818627  0.095329  0.0
0.801119  0.095302  0.0
0.809795  0.093783  0.0
0.880143  0.103026  0.0
0.871257  0.098435  0.0
0.888753  0.098442  0.0
0.880051  0.099969  0.0
0.862347  0.093833  0.0
0.853416  0.089218  0.0
0.870956  0.089227  0.0
0.86224  0.090761  0.0
0.897383  0.093844  0.0
0.888496  0.089232  0.0
0.906035  0.089235  0.0
0.897305  0.090772  0.0
0.879772  0.090768  0.0
0.888667  0.095377  0.0
0.871157  0.095371  0.0
0.879865  0.09384  0.0
0.844707  0.09075  0.0
0.853646  0.095362  0.0
0.836136  0.095348  0.0
0.84483  0.093822  0.0
0.862563  0.099961  0.0
0.871455  0.104549  0.0
0.85399  0.104539  0.0
0.862669  0.103018  0.0
0.827589  0.099933  0.0
0.836526  0.104524  0.0
0.819065  0.104503  0.0
0.827727  0.102988  0.0
0.845197  0.103006  0.0
0.836267  0.098412  0.0
0.853761  0.098426  0.0
0.845075  0.09995  0.0
0.774574  0.090642  0.0
0.783611  0.095266  0.0
0.766103  0.09522  0.0
0.774762  0.093712  0.0
0.792622  0.099877  0.0
0.801606  0.104474  0.0
0.784149  0.104437  0.0
0.792792  0.102932  0.0
0.757661  0.099782  0.0
0.766696  0.104388  0.0
0.749245  0.104326  0.0
0.757867  0.102835  0.0
0.775328  0.102889  0.0
0.766301  0.098282  0.0
0.783791  0.098328  0.0
0.77514  0.099835  0.0
0.810561  0.109059  0.0
0.819487  0.11363  0.0
0.802077  0.113599  0.0
0.810709  0.112098  0.0
0.828383  0.11819  0.0
0.837248  0.122739  0.0
0.819879  0.122713  0.0
0.828504  0.121216  0.0
0.793612  0.118125  0.0
0.802516  0.122679  0.0
0.785162  0.122634  0.0
0.793764  0.121148  0.0
0.81113  0.121187  0.0
0.802228  0.116631  0.0
0.819622  0.116663  0.0
0.810994  0.118162  0.0
0.740856  0.108853  0.0
0.74988  0.113442  0.0
0.732492  0.11336  0.0
0.741076  0.111888  0.0
0.758866  0.118017  0.0
0.767815  0.122578  0.0
0.750477  0.122508  0.0
0.759054  0.121037  0.0
0.72415  0.117849  0.0
0.733149  0.122422  0.0
0.715829  0.122317  0.0
0.724377  0.120866  0.0
0.741711  0.12096  0.0
0.732716  0.116387  0.0
0.750084  0.116469  0.0
0.741505  0.117941  0.0
0.776405  0.121099  0.0
0.767459  0.116536  0.0
0.78484  0.116589  0.0
0.776236  0.118077  0.0
0.758477  0.11196  0.0
0.749459  0.10737  0.0
0.766891  0.107433  0.0
0.758276  0.108924  0.0
0.793293  0.112063  0.0
0.784326  0.107483  0.0
0.801765  0.107521  0.0
0.793129  0.109025  0.0
0.775701  0.10898  0.0
0.784673  0.113559  0.0
0.767274  0.113507  0.0
0.775883  0.112018  0.0
0.996491  0.127657  0.0
0.991725  0.130672  0.0
0.996476  0.120982  0.0
0.990993  0.125641  0.0
0.98289  0.121505  0.0
0.976337  0.116766  0.0
0.991694  0.117951  0.0
0.983606  0.118477  0.0
0.967361  0.112155  0.0
0.958695  0.107612  0.0
0.975447  0.107592  0.0
0.96723  0.109112  0.0
0.996461  0.109466  0.0
0.991679  0.112507  0.0
0.996465  0.102734  0.0
0.990942  0.107431  0.0
0.982831  0.108926  0.0
0.976314  0.113681  0.0
0.983568  0.111972  0.0
0.950012  0.103039  0.0
0.94124  0.098448  0.0
0.958715  0.09845  0.0
0.94998  0.099981  0.0
0.932417  0.093847  0.0
0.923573  0.089236  0.0
0.941099  0.089237  0.0
0.932364  0.090775  0.0
0.967224  0.093823  0.0
0.95851  0.089235  0.0
0.975342  0.089215  0.0
0.967089  0.090749  0.0
0.949864  0.090773  0.0
0.958687  0.09538  0.0
0.941194  0.095382  0.0
0.949907  0.093845  0.0
0.996452  0.091111  0.0
0.991651  0.094177  0.0
0.996455  0.084314  0.0
0.990908  0.089056  0.0
0.982766  0.090563  0.0
0.976219  0.09536  0.0
0.983509  0.093635  0.0
0.995198  0.09693  0.0
0.990947  0.104766  0.0
0.967244  0.100008  0.0
0.975409  0.104591  0.0
0.958661  0.104566  0.0
0.967159  0.103065  0.0
0.982797  0.10326  0.0
0.976212  0.098476  0.0
0.991664  0.099671  0.0
0.983514  0.100201  0.0
0.995218  0.115233  0.0
0.990979  0.122998  0.0
0.914708  0.084614  0.0
0.905822  0.07998  0.0
0.923402  0.079981  0.0
0.914644  0.081526  0.0
0.896919  0.075335  0.0
0.887998  0.070679  0.0
0.905618  0.070681  0.0
0.896845  0.072233  0.0
0.932115  0.075337  0.0
0.923236  0.070683  0.0
0.94084  0.070683  0.0
0.932065  0.072235  0.0
0.914458  0.072235  0.0
0.923346  0.076887  0.0
0.905753  0.076885  0.0
0.914519  0.075337  0.0
0.879062  0.066012  0.0
0.870112  0.061334  0.0
0.887771  0.061339  0.0
0.878981  0.062896  0.0
0.86115  0.056647  0.0
0.852178  0.051951  0.0
0.869874  0.051957  0.0
0.861067  0.053519  0.0
0.896504  0.056656  0.0
0.887568  0.051961  0.0
0.905258  0.051964  0.0
0.896443  0.053528  0.0
0.878756  0.053525  0.0
0.887701  0.058217  0.0
0.870029  0.058212  0.0
0.878828  0.056653  0.0
0.949576  0.066021  0.0
0.94073  0.061344  0.0
0.958363  0.061347  0.0
0.949549  0.062906  0.0
0.931844  0.056659  0.0
0.922944  0.051965  0.0
0.940617  0.051966  0.0
0.931803  0.053531  0.0
0.966947  0.056635  0.0
0.958168  0.051965  0.0
0.975137  0.051947  0.0
0.966815  0.053507  0.0
0.949449  0.053529  0.0
0.958335  0.05822  0.0
0.940693  0.058221  0.0
0.949484  0.056657  0.0
0.914126  0.05353  0.0
0.923035  0.058221  0.0
0.905369  0.05822  0.0
0.914177  0.056658  0.0
0.931929  0.062903  0.0
0.9408  0.067574  0.0
0.923183  0.067574  0.0
0.931972  0.066018  0.0
0.896634  0.0629  0.0
0.905553  0.067572  0.0
0.88792  0.06757  0.0
0.896702  0.066015  0.0
0.91434  0.066017  0.0
0.905429  0.061341  0.0
0.923083  0.061343  0.0
0.914283  0.062902  0.0
0.843198  0.047246  0.0
0.834212  0.042533  0.0
0.851943  0.042541  0.0
0.843117  0.044108  0.0
0.825224  0.037813  0.0
0.816235  0.033088  0.0
0.833995  0.033098  0.0
0.82515  0.034667  0.0
0.860711  0.037829  0.0
0.85175  0.033105  0.0
0.8695  0.03311  0.0
0.860653  0.034682  0.0
0.842904  0.034676  0.0
0.851874  0.039399  0.0
0.834134  0.039391  0.0
0.84297  0.037823  0.0
0.807247  0.028358  0.0
0.798264  0.023624  0.0
0.816049  0.023634  0.0
0.807186  0.025206  0.0
0.789288  0.018888  0.0
0.780322  0.014151  0.0
0.798126  0.014159  0.0
0.789244  0.015733  0.0
0.824872  0.018904  0.0
0.815924  0.014165  0.0
0.833715  0.014169  0.0
0.824836  0.015747  0.0
0.807043  0.015741  0.0
0.816  0.020479  0.0
0.798211  0.020471  0.0
0.807083  0.018897  0.0
0.878308  0.028384  0.0
0.86937  0.02365  0.0
0.887134  0.023653  0.0
0.87827  0.02523  0.0
0.860433  0.018913  0.0
0.851501  0.014173  0.0
0.869282  0.014175  0.0
0.860405  0.015754  0.0
0.895975  0.018917  0.0
0.887058  0.014176  0.0
0.90483  0.014177  0.0
0.895954  0.015757  0.0
0.878181  0.015756  0.0
0.887104  0.020495  0.0
0.869336  0.020493  0.0
0.878206  0.018915  0.0
0.842623  0.015751  0.0
0.851563  0.02049  0.0
0.833784  0.020485  0.0
0.842656  0.018909  0.0
0.860506  0.025226  0.0
0.869452  0.029959  0.0
0.851695  0.029954  0.0
0.86055  0.028381  0.0
0.824965  0.025215  0.0
0.833933  0.029948  0.0
0.816166  0.029939  0.0
0.82502  0.028368  0.0
0.842788  0.028375  0.0
0.833828  0.023641  0.0
0.851601  0.023647  0.0
0.842738  0.025222  0.0
0.982598  0.0475  0.0
0.975944  0.04259  0.0
0.991556  0.043828  0.0
0.983328  0.044365  0.0
0.966839  0.037815  0.0
0.958053  0.033115  0.0
0.975066  0.033099  0.0
0.966716  0.034667  0.0
0.996405  0.035054  0.0
0.991545  0.038193  0.0
0.996413  0.0281  0.0
0.990802  0.032944  0.0
0.982562  0.034481  0.0
0.975932  0.039397  0.0
0.983305  0.037632  0.0
0.949263  0.028392  0.0
0.940397  0.023656  0.0
0.958126  0.02366  0.0
0.949253  0.025237  0.0
0.931498  0.018918  0.0
0.922597  0.014178  0.0
0.940349  0.014178  0.0
0.931482  0.015758  0.0
0.966767  0.018895  0.0
0.95797  0.014178  0.0
0.975016  0.014163  0.0
0.966643  0.015736  0.0
0.949205  0.015756  0.0
0.958111  0.020497  0.0
0.940381  0.020498  0.0
0.949222  0.018917  0.0
0.996405  0.016128  0.0
0.991535  0.019275  0.0
0.996413  0.009152  0.0
0.990791  0.014009  0.0
0.982534  0.01555  0.0
0.975884  0.020482  0.0
0.983278  0.01871  0.0
0.99513  0.022114  0.0
0.990809  0.030191  0.0
0.966769  0.025267  0.0
0.975036  0.029999  0.0
0.958034  0.029969  0.0
0.966667  0.028421  0.0
0.98254  0.028628  0.0
0.975871  0.023691  0.0
0.991543  0.024935  0.0
0.983273  0.025474  0.0
0.913722  0.015758  0.0
0.92263  0.020498  0.0
0.904869  0.020497  0.0
0.91374  0.018918  0.0
0.931534  0.025234  0.0
0.940427  0.029966  0.0
0.922697  0.029965  0.0
0.931554  0.028389  0.0
0.896029  0.025232  0.0
0.904953  0.029964  0.0
0.887204  0.029962  0.0
0.896061  0.028386  0.0
0.913811  0.028388  0.0
0.904894  0.023654  0.0
0.92265  0.023655  0.0
0.913784  0.025233  0.0
0.949302  0.034689  0.0
0.958203  0.039411  0.0
0.940505  0.039412  0.0
0.949329  0.037837  0.0
0.966857  0.044157  0.0
0.975119  0.048864  0.0
0.958134  0.048837  0.0
0.966762  0.047295  0.0
0.931693  0.044126  0.0
0.940582  0.048833  0.0
0.922901  0.048832  0.0
0.931726  0.047265  0.0
0.94938  0.047268  0.0
0.94053  0.042556  0.0
0.958209  0.042559  0.0
0.949361  0.04413  0.0
0.878397  0.034686  0.0
0.887339  0.039408  0.0
0.869608  0.039404  0.0
0.878447  0.037834  0.0
0.896276  0.044123  0.0
0.905206  0.048831  0.0
0.887506  0.048828  0.0
0.896328  0.047262  0.0
0.860841  0.044115  0.0
0.869802  0.048824  0.0
0.852095  0.048818  0.0
0.860912  0.047253  0.0
0.878622  0.047258  0.0
0.869669  0.042547  0.0
0.887391  0.042551  0.0
0.87856  0.04412  0.0
0.914031  0.047263  0.0
0.90511  0.042554  0.0
0.922825  0.042555  0.0
0.913988  0.044125  0.0
0.89618  0.037836  0.0
0.887245  0.033113  0.0
0.904987  0.033115  0.0
0.896137  0.034689  0.0
0.931632  0.037839  0.0
0.922724  0.033116  0.0
0.940448  0.033117  0.0
0.931603  0.034691  0.0
0.913873  0.03469  0.0
0.922789  0.039411  0.0
0.905066  0.03941  0.0
0.913909  0.037838  0.0
0.995139  0.041019  0.0
0.990826  0.049053  0.0
0.982622  0.05332  0.0
0.976016  0.058202  0.0
0.983369  0.056447  0.0
0.995157  0.059808  0.0
0.990866  0.067788  0.0
0.96697  0.062934  0.0
0.975192  0.067606  0.0
0.958296  0.067578  0.0
0.966876  0.06605  0.0
0.982651  0.06625  0.0
0.976011  0.061375  0.0
0.991591  0.062598  0.0
0.983376  0.063135  0.0
0.995174  0.078458  0.0
0.99091  0.086364  0.0
0.949637  0.072233  0.0
0.958497  0.076884  0.0
0.940932  0.076887  0.0
0.949679  0.075335  0.0
0.967092  0.081558  0.0
0.975304  0.086186  0.0
0.958464  0.08616  0.0
0.967006  0.084645  0.0
0.932211  0.081528  0.0
0.941052  0.086157  0.0
0.923515  0.086156  0.0
0.93226  0.084615  0.0
0.949772  0.084619  0.0
0.940972  0.079982  0.0
0.958519  0.079985  0.0
0.94974  0.081531  0.0
0.982731  0.084842  0.0
0.976109  0.080014  0.0
0.991629  0.081224  0.0
0.983449  0.081758  0.0
0.96706  0.075312  0.0
0.958317  0.070682  0.0
0.975217  0.070663  0.0
0.966921  0.072211  0.0
0.996429  0.07258  0.0
0.991603  0.075678  0.0
0.996434  0.065721  0.0
0.99086  0.070504  0.0
0.98267  0.072023  0.0
0.976098  0.076869  0.0
0.983412  0.075128  0.0
0.996423  0.053885  0.0
0.99158  0.057003  0.0
0.996417  0.046972  0.0
0.990832  0.05179  0.0
0.00312  -0.001232  0.0
0.007393  -0.003031  0.0
0.01514  -0.005456  0.0
0.020887  -0.007074  0.0
0.007288  -0.00249  0.0
0.014447  -0.005017  0.0
0.028789  -0.009125  0.0
0.036419  -0.010789  0.0
0.021493  -0.006384  0.0
0.028824  -0.008746  0.0
0.003083  -0.000952  0.0
0.007269  -0.00234  0.0
0.014999  -0.004556  0.0
0.020838  -0.006754  0.0
0.014379  -0.004547  0.0
0.044058  -0.01216  0.0
0.05178  -0.013265  0.0
0.036122  -0.009308  0.0
0.043974  -0.011577  0.0
0.059552  -0.014107  0.0
0.06735  -0.014687  0.0
0.051562  -0.011331  0.0
0.059468  -0.013373  0.0
0.028486  -0.006823  0.0
0.03608  -0.007974  0.0
0.021308  -0.004724  0.0
0.02855  -0.006493  0.0
0.043786  -0.009913  0.0
0.036068  -0.008845  0.0
0.051699  -0.012606  0.0
0.043838  -0.010455  0.0
0.003051  -0.000709  0.0
0.007194  -0.001756  0.0
0.014862  -0.003386  0.0
0.020615  -0.00507  0.0
0.014234  -0.003402  0.0
0.004143  -0.001047  0.0
0.00789  -0.002349  0.0
0.003061  -0.000838  0.0
0.007868  -0.002236  0.0
0.028592  -0.007567  0.0
0.021475  -0.006103  0.0
0.03635  -0.010293  0.0
0.028736  -0.007969  0.0
0.014959  -0.004162  0.0
0.020666  -0.005351  0.0
0.007204  -0.001886  0.0
0.014295  -0.003812  0.0
0.004187  -0.001388  0.0
0.008  -0.003059  0.0
0.003102  -0.001102  0.0
0.007981  -0.002928  0.0
0.075175  -0.015016  0.0
0.083028  -0.015101  0.0
0.06711  -0.012321  0.0
0.075087  -0.014145  0.0
0.090911  -0.01495  0.0
0.098825  -0.01457  0.0
0.08279  -0.012338  0.0
0.090825  -0.013952  0.0
0.059144  -0.009907  0.0
0.066934  -0.010066  0.0
0.051271  -0.007769  0.0
0.059098  -0.009247  0.0
0.074869  -0.011617  0.0
0.067045  -0.011558  0.0
0.082941  -0.014166  0.0
0.074934  -0.012448  0.0
0.106772  -0.013966  0.0
0.114753  -0.013144  0.0
0.098599  -0.011431  0.0
0.106692  -0.012847  0.0
0.12277  -0.01211  0.0
0.130826  -0.010866  0.0
0.114552  -0.009641  0.0
0.122701  -0.010872  0.0
0.090507  -0.009142  0.0
0.098438  -0.008383  0.0
0.082488  -0.007098  0.0
0.090462  -0.008207  0.0
0.1065  -0.009556  0.0
0.098539  -0.010406  0.0
0.114678  -0.011966  0.0
0.106557  -0.010644  0.0
0.043483  -0.005898  0.0
0.051173  -0.006095  0.0
0.035735  -0.004282  0.0
0.043454  -0.005425  0.0
0.058922  -0.006059  0.0
0.06671  -0.005791  0.0
0.051115  -0.00447  0.0
0.058899  -0.00544  0.0
0.028242  -0.002935  0.0
0.035801  -0.003149  0.0
0.021163  -0.001867  0.0
0.028331  -0.002645  0.0
0.043406  -0.004035  0.0
0.035722  -0.003897  0.0
0.051149  -0.005548  0.0
0.043417  -0.004494  0.0
0.074593  -0.006833  0.0
0.066767  -0.007189  0.0
0.082567  -0.008811  0.0
0.074626  -0.007611  0.0
0.058981  -0.007314  0.0
0.051238  -0.007205  0.0
0.066886  -0.009335  0.0
0.059017  -0.007951  0.0
0.090614  -0.011035  0.0
0.082725  -0.011441  0.0
0.098742  -0.013511  0.0
0.090677  -0.011997  0.0
0.074756  -0.009988  0.0
0.082614  -0.009679  0.0
0.066802  -0.007897  0.0
0.074708  -0.009188  0.0
0.138923  -0.009417  0.0
0.147063  -0.007765  0.0
0.130665  -0.007  0.0
0.138869  -0.008061  0.0
0.155248  -0.005915  0.0
0.163483  -0.003869  0.0
0.146957  -0.003532  0.0
0.155216  -0.004438  0.0
0.122474  -0.004802  0.0
0.130576  -0.003184  0.0
0.114345  -0.002824  0.0
0.12245  -0.003603  0.0
0.138759  -0.004028  0.0
0.130628  -0.005723  0.0
0.147018  -0.006349  0.0
0.138787  -0.005368  0.0
0.17177  -0.001629  0.0
0.180112  0.000803  0.0
0.163453  0.000741  0.0
0.171764  -2.7e-05  0.0
0.188512  0.003424  0.0
0.196975  0.006231  0.0
0.180179  0.005803  0.0
0.188542  0.005154  0.0
0.155191  0.002915  0.0
0.163512  0.005356  0.0
0.146982  0.00489  0.0
0.155214  0.004388  0.0
0.171812  0.004779  0.0
0.163462  0.002278  0.0
0.180123  0.002468  0.0
0.171785  0.003175  0.0
0.106274  -0.001066  0.0
0.114326  0.000541  0.0
0.098256  0.00047  0.0
0.106271  -1.8e-05  0.0
0.122433  0.002366  0.0
0.130597  0.004408  0.0
0.114363  0.00391  0.0
0.12245  0.003562  0.0
0.090289  0.001786  0.0
0.098285  0.003399  0.0
0.08237  0.002878  0.0
0.0903  0.002688  0.0
0.106295  0.00313  0.0
0.098261  0.001446  0.0
0.114332  0.001663  0.0
0.106281  0.002079  0.0
0.138758  0.003982  0.0
0.130561  0.001874  0.0
0.146939  0.00208  0.0
0.138738  0.002645  0.0
0.12242  -2e-05  0.0
0.114333  -0.001701  0.0
0.130561  -0.001918  0.0
0.122423  -0.001214  0.0
0.155173  -2.5e-05  0.0
0.14694  -0.002128  0.0
0.163463  -0.00233  0.0
0.155178  -0.001495  0.0
0.138727  -0.001357  0.0
0.146931  0.000677  0.0
0.130553  0.00061  0.0
0.138723  -2.3e-05  0.0
0.014759  -0.001077  0.0
0.020421  -0.001168  0.0
0.007136  -0.000423  0.0
0.014122  -0.000896  0.0
0.028207  -0.001162  0.0
0.035757  -0.000922  0.0
0.021142  -0.000545  0.0
0.028299  -0.000875  0.0
0.003033  -0.000105  0.0
0.007139  -0.000318  0.0
0.014753  -0.000454  0.0
0.020418  -0.000946  0.0
0.014122  -0.000569  0.0
0.043344  -0.000451  0.0
0.051037  0.000251  0.0
0.035655  0.000176  0.0
0.043338  -8e-06  0.0
0.058804  0.001184  0.0
0.066623  0.002348  0.0
0.051055  0.001813  0.0
0.058811  0.001782  0.0
0.028196  0.000578  0.0
0.035761  0.001278  0.0
0.02114  0.000762  0.0
0.028295  0.00087  0.0
0.043348  0.001323  0.0
0.035653  0.000543  0.0
0.05104  0.000771  0.0
0.043339  0.000879  0.0
0.003027  8.3e-05  0.0
0.00713  0.000125  0.0
0.014744  0.000459  0.0
0.020405  0.000317  0.0
0.014108  0.000306  0.0
0.004103  4.2e-05  0.0
0.00777  -0.000203  0.0
0.003024  -2.1e-05  0.0
0.007761  -0.00012  0.0
0.02822  -8e-06  0.0
0.021159  -0.000332  0.0
0.035758  -0.000556  0.0
0.028317  -0.000297  0.0
0.014761  -0.000158  0.0
0.020427  9.7e-05  0.0
0.007127  2.1e-05  0.0
0.014127  -1.8e-05  0.0
0.074469  0.002238  0.0
0.066608  0.000999  0.0
0.082351  0.001224  0.0
0.074461  0.001487  0.0
0.058799  -1e-05  0.0
0.051045  -0.000789  0.0
0.066609  -0.001022  0.0
0.058801  -0.000607  0.0
0.090281  -1.5e-05  0.0
0.082351  -0.001252  0.0
0.098261  -0.001479  0.0
0.090283  -0.000916  0.0
0.074457  -0.000762  0.0
0.082347  0.000398  0.0
0.066605  0.000325  0.0
0.074455  -1.3e-05  0.0
0.043348  -0.001337  0.0
0.035664  -0.001653  0.0
0.051056  -0.002354  0.0
0.043347  -0.001781  0.0
0.028227  -0.001754  0.0
0.021162  -0.001649  0.0
0.035801  -0.002775  0.0
0.028331  -0.002054  0.0
0.058844  -0.003608  0.0
0.051101  -0.003937  0.0
0.066687  -0.0051  0.0
0.058861  -0.004215  0.0
0.043392  -0.003128  0.0
0.051067  -0.002879  0.0
0.035682  -0.002024  0.0
0.043376  -0.002678  0.0
0.106296  -0.003166  0.0
0.098305  -0.004414  0.0
0.114388  -0.005077  0.0
0.106315  -0.00422  0.0
0.09036  -0.005443  0.0
0.082456  -0.00625  0.0
0.098396  -0.007382  0.0
0.090389  -0.006359  0.0
0.122542  -0.007211  0.0
0.114501  -0.00849  0.0
0.130764  -0.009569  0.0
0.122588  -0.008425  0.0
0.106408  -0.007404  0.0
0.114419  -0.00621  0.0
0.09833  -0.005399  0.0
0.106371  -0.006338  0.0
0.074537  -0.005294  0.0
0.082405  -0.004571  0.0
0.066648  -0.00373  0.0
0.074515  -0.004531  0.0
0.090316  -0.003624  0.0
0.098271  -0.002455  0.0
0.082359  -0.002079  0.0
0.0903  -0.002719  0.0
0.058818  -0.002402  0.0
0.066615  -0.001696  0.0
0.05105  -0.001309  0.0
0.058811  -0.001802  0.0
0.07447  -0.002264  0.0
0.066633  -0.003049  0.0
0.082386  -0.003737  0.0
0.074481  -0.003017  0.0
0.004106  -0.000213  0.0
0.007774  -0.00069  0.0
0.00303  -0.00021  0.0
0.007773  -0.000605  0.0
0.014761  -0.001379  0.0
0.02044  -0.002236  0.0
0.014128  -0.001458  0.0
0.00411  -0.000473  0.0
0.007796  -0.001197  0.0
0.003031  -0.000404  0.0
0.007783  -0.001106  0.0
0.02828  -0.003552  0.0
0.021222  -0.003017  0.0
0.035879  -0.005076  0.0
0.028395  -0.003873  0.0
0.014795  -0.002028  0.0
0.020466  -0.002468  0.0
0.007141  -0.000878  0.0
0.014153  -0.0018  0.0
0.004124  -0.000749  0.0
0.007823  -0.00174  0.0
0.003037  -0.00061  0.0
0.007808  -0.001641  0.0
0.043544  -0.006859  0.0
0.035848  -0.006263  0.0
0.051343  -0.008918  0.0
0.043569  -0.007347  0.0
0.028399  -0.005464  0.0
0.021305  -0.004477  0.0
0.036054  -0.007544  0.0
0.028522  -0.005816  0.0
0.059257  -0.011259  0.0
0.051503  -0.010713  0.0
0.067263  -0.013884  0.0
0.059322  -0.011951  0.0
0.043701  -0.008864  0.0
0.05139  -0.009507  0.0
0.035884  -0.006678  0.0
0.043653  -0.008351  0.0
0.014845  -0.00304  0.0
0.020535  -0.003843  0.0
0.00716  -0.001359  0.0
0.014197  -0.002757  0.0
0.028342  -0.004801  0.0
0.035906  -0.005472  0.0
0.021225  -0.003245  0.0
0.028426  -0.004498  0.0
0.003045  -0.000495  0.0
0.007168  -0.001244  0.0
0.014812  -0.002348  0.0
0.020514  -0.003595  0.0
0.014184  -0.002395  0.0
0.003031  -0.000295  0.0
0.007141  -0.000769  0.0
0.205505  0.009222  0.0
0.214104  0.012394  0.0
0.197167  0.011637  0.0
0.205579  0.011087  0.0
0.222778  0.015744  0.0
0.23153  0.019268  0.0
0.214452  0.018221  0.0
0.222907  0.017748  0.0
0.188879  0.013879  0.0
0.197485  0.017113  0.0
0.180636  0.015946  0.0
0.188986  0.015649  0.0
0.205889  0.016727  0.0
0.197259  0.013453  0.0
0.214205  0.014328  0.0
0.205771  0.014837  0.0
0.240364  0.022962  0.0
0.249284  0.02682  0.0
0.232069  0.025528  0.0
0.24056  0.025107  0.0
0.258292  0.030837  0.0
0.267392  0.035005  0.0
0.250049  0.033517  0.0
0.258566  0.033125  0.0
0.223821  0.027949  0.0
0.232789  0.031923  0.0
0.215621  0.030223  0.0
0.224064  0.030037  0.0
0.241271  0.031632  0.0
0.232288  0.027643  0.0
0.249517  0.029037  0.0
0.241012  0.02944  0.0
0.172437  0.017835  0.0
0.181047  0.021156  0.0
0.16428  0.019542  0.0
0.172573  0.019514  0.0
0.189751  0.024684  0.0
0.198555  0.028416  0.0
0.181603  0.026506  0.0
0.189955  0.02654  0.0
0.156162  0.021063  0.0
0.164775  0.024497  0.0
0.148081  0.022394  0.0
0.156324  0.022655  0.0
0.173074  0.024644  0.0
0.164429  0.021177  0.0
0.181215  0.022923  0.0
0.172891  0.022916  0.0
0.206955  0.028339  0.0
0.198127  0.024584  0.0
0.215154  0.026159  0.0
0.206731  0.026363  0.0
0.189396  0.021027  0.0
0.180758  0.01767  0.0
0.19762  0.018961  0.0
0.189244  0.019221  0.0
0.223399  0.023826  0.0
0.214601  0.020185  0.0
0.231691  0.021342  0.0
0.223217  0.021786  0.0
0.206174  0.020538  0.0
0.214951  0.024152  0.0
0.197941  0.022694  0.0
0.206342  0.022465  0.0
0.276585  0.039318  0.0
0.285872  0.043765  0.0
0.268419  0.042136  0.0
0.276947  0.041746  0.0
0.295254  0.048338  0.0
0.304728  0.053025  0.0
0.287191  0.051311  0.0
0.295714  0.050899  0.0
0.260312  0.044843  0.0
0.269701  0.04945  0.0
0.252265  0.047436  0.0
0.260747  0.047251  0.0
0.278204  0.049148  0.0
0.268817  0.044553  0.0
0.286282  0.046261  0.0
0.277755  0.046659  0.0
0.314292  0.057814  0.0
0.323942  0.062693  0.0
0.306357  0.06095  0.0
0.314854  0.060495  0.0
0.333671  0.067649  0.0
0.343471  0.072667  0.0
0.325879  0.070947  0.0
0.334331  0.070431  0.0
0.298501  0.064007  0.0
0.308297  0.069056  0.0
0.29073  0.066984  0.0
0.299166  0.066693  0.0
0.316741  0.068648  0.0
0.306968  0.063633  0.0
0.324554  0.065427  0.0
0.316077  0.065911  0.0
0.244279  0.049916  0.0
0.253791  0.054719  0.0
0.236358  0.052282  0.0
0.244796  0.052315  0.0
0.263426  0.059659  0.0
0.273182  0.06472  0.0
0.255659  0.062253  0.0
0.264077  0.062222  0.0
0.228505  0.054535  0.0
0.238171  0.059573  0.0
0.220726  0.056673  0.0
0.22912  0.056938  0.0
0.246577  0.059686  0.0
0.236921  0.054682  0.0
0.254373  0.057202  0.0
0.245942  0.057198  0.0
0.281609  0.064554  0.0
0.271871  0.059529  0.0
0.289405  0.061669  0.0
0.280948  0.061926  0.0
0.262246  0.054618  0.0
0.252739  0.049838  0.0
0.270191  0.051933  0.0
0.261712  0.052136  0.0
0.297283  0.058701  0.0
0.287694  0.053868  0.0
0.305239  0.055648  0.0
0.296726  0.056079  0.0
0.279197  0.054189  0.0
0.288798  0.059046  0.0
0.271274  0.056971  0.0
0.279745  0.056744  0.0
0.140036  0.023531  0.0
0.148654  0.027105  0.0
0.132025  0.024469  0.0
0.140221  0.025039  0.0
0.157396  0.030925  0.0
0.166274  0.034989  0.0
0.149402  0.032035  0.0
0.157673  0.032656  0.0
0.124046  0.025201  0.0
0.132671  0.028941  0.0
0.116097  0.025721  0.0
0.124253  0.026625  0.0
0.140888  0.029704  0.0
0.132221  0.025935  0.0
0.148881  0.028722  0.0
0.140646  0.028122  0.0
0.175297  0.039292  0.0
0.184477  0.043827  0.0
0.167367  0.040625  0.0
0.175697  0.041256  0.0
0.193821  0.048583  0.0
0.203336  0.053545  0.0
0.186015  0.050187  0.0
0.194374  0.050782  0.0
0.159483  0.041788  0.0
0.168779  0.046596  0.0
0.151646  0.042779  0.0
0.15995  0.04373  0.0
0.177113  0.047368  0.0
0.167799  0.042576  0.0
0.184949  0.045909  0.0
0.176601  0.04529  0.0
0.108176  0.026021  0.0
0.116816  0.029955  0.0
0.100283  0.026093  0.0
0.108405  0.02736  0.0
0.125629  0.034196  0.0
0.134636  0.038742  0.0
0.117772  0.034503  0.0
0.125991  0.035821  0.0
0.092415  0.025926  0.0
0.101076  0.030083  0.0
0.084569  0.02551  0.0
0.092664  0.027176  0.0
0.109238  0.031579  0.0
0.100522  0.027388  0.0
0.117105  0.031434  0.0
0.108932  0.030134  0.0
0.142902  0.039877  0.0
0.133858  0.035326  0.0
0.150762  0.039045  0.0
0.142486  0.038086  0.0
0.125001  0.031067  0.0
0.116314  0.027103  0.0
0.132929  0.030488  0.0
0.124728  0.029554  0.0
0.158664  0.038029  0.0
0.149698  0.033737  0.0
0.166608  0.036835  0.0
0.158305  0.036204  0.0
0.141443  0.032954  0.0
0.150375  0.037238  0.0
0.133519  0.033676  0.0
0.14176  0.034629  0.0
0.211714  0.053972  0.0
0.202196  0.049038  0.0
0.219525  0.051962  0.0
0.211127  0.051664  0.0
0.192841  0.044301  0.0
0.183642  0.039774  0.0
0.200786  0.042545  0.0
0.192405  0.042211  0.0
0.227404  0.04983  0.0
0.218025  0.045146  0.0
0.235347  0.047577  0.0
0.22691  0.047523  0.0
0.209614  0.044955  0.0
0.218987  0.049657  0.0
0.201688  0.046838  0.0
0.210081  0.047159  0.0
0.174593  0.035468  0.0
0.165685  0.031391  0.0
0.18262  0.03393  0.0
0.174283  0.033599  0.0
0.156909  0.027548  0.0
0.148255  0.023944  0.0
0.164973  0.026187  0.0
0.156696  0.025895  0.0
0.190689  0.032227  0.0
0.181825  0.028329  0.0
0.1988  0.030363  0.0
0.190423  0.030309  0.0
0.173495  0.028156  0.0
0.182332  0.032038  0.0
0.165427  0.029631  0.0
0.173736  0.029947  0.0
0.243351  0.045203  0.0
0.234081  0.040725  0.0
0.251413  0.042709  0.0
0.242934  0.042884  0.0
0.224927  0.036416  0.0
0.215887  0.032285  0.0
0.233074  0.034093  0.0
0.224615  0.034268  0.0
0.259533  0.040096  0.0
0.250351  0.035786  0.0
0.267708  0.037364  0.0
0.259184  0.037752  0.0
0.241858  0.036069  0.0
0.251032  0.040379  0.0
0.233718  0.038491  0.0
0.24219  0.038319  0.0
0.207466  0.032347  0.0
0.21649  0.036471  0.0
0.199357  0.034319  0.0
0.207757  0.034385  0.0
0.225631  0.04078  0.0
0.234893  0.045266  0.0
0.217595  0.042935  0.0
0.226026  0.043001  0.0
0.191293  0.036136  0.0
0.200384  0.040445  0.0
0.183273  0.037795  0.0
0.191634  0.038132  0.0
0.208783  0.040644  0.0
0.199673  0.036335  0.0
0.21683  0.038601  0.0
0.208413  0.038531  0.0
0.353332  0.077734  0.0
0.363242  0.082836  0.0
0.345691  0.081182  0.0
0.354081  0.080595  0.0
0.37319  0.087959  0.0
0.383158  0.093092  0.0
0.365694  0.091538  0.0
0.374008  0.090875  0.0
0.338155  0.084573  0.0
0.348219  0.089814  0.0
0.330732  0.087907  0.0
0.339028  0.087445  0.0
0.356523  0.089247  0.0
0.3465  0.084048  0.0
0.364029  0.085727  0.0
0.355676  0.086352  0.0
0.393133  0.098222  0.0
0.403098  0.103339  0.0
0.385761  0.101904  0.0
0.393993  0.101167  0.0
0.413034  0.108434  0.0
0.422925  0.113498  0.0
0.405746  0.11219  0.0
0.413899  0.111387  0.0
0.378502  0.105534  0.0
0.38856  0.110732  0.0
0.371365  0.109111  0.0
0.379471  0.108474  0.0
0.39669  0.110008  0.0
0.386674  0.104847  0.0
0.403964  0.106291  0.0
0.395773  0.107062  0.0
0.323432  0.091185  0.0
0.333667  0.096575  0.0
0.316266  0.094405  0.0
0.324447  0.09407  0.0
0.343917  0.101955  0.0
0.354155  0.107312  0.0
0.336927  0.105317  0.0
0.344994  0.104877  0.0
0.309249  0.097566  0.0
0.319676  0.103109  0.0
0.302395  0.100669  0.0
0.310432  0.100466  0.0
0.327726  0.102783  0.0
0.317362  0.097297  0.0
0.33472  0.099483  0.0
0.326595  0.099871  0.0
0.362241  0.106769  0.0
0.352055  0.101458  0.0
0.369372  0.103241  0.0
0.361218  0.103837  0.0
0.341858  0.096126  0.0
0.331673  0.090785  0.0
0.349129  0.092713  0.0
0.340879  0.093222  0.0
0.376628  0.099659  0.0
0.366571  0.094455  0.0
0.384001  0.096025  0.0
0.375728  0.096726  0.0
0.358311  0.095064  0.0
0.368412  0.100308  0.0
0.351048  0.098537  0.0
0.359251  0.097983  0.0
0.432755  0.118527  0.0
0.442505  0.123516  0.0
0.425499  0.122331  0.0
0.433585  0.12147  0.0
0.452166  0.128457  0.0
0.461758  0.133338  0.0
0.444883  0.132265  0.0
0.452935  0.131368  0.0
0.418326  0.126072  0.0
0.42802  0.131065  0.0
0.411181  0.129727  0.0
0.41918  0.128972  0.0
0.436051  0.130237  0.0
0.426356  0.125259  0.0
0.443304  0.126447  0.0
0.43524  0.12733  0.0
0.471485  0.138094  0.0
0.482012  0.142599  0.0
0.464707  0.141634  0.0
0.472697  0.140819  0.0
0.494884  0.146905  0.0
0.484211  0.145171  0.0
0.457696  0.144784  0.0
0.466171  0.144159  0.0
0.403747  0.133187  0.0
0.47636  0.145917  0.0
0.412317  0.1378  0.0
0.395135  0.136195  0.0
0.403815  0.135785  0.0
0.402018  0.140371  0.0
0.393895  0.138444  0.0
0.41176  0.140135  0.0
0.420539  0.142027  0.0
0.429858  0.141645  0.0
0.439088  0.143482  0.0
0.447987  0.142981  0.0
0.420973  0.137274  0.0
0.411888  0.132548  0.0
0.428745  0.133893  0.0
0.420612  0.13462  0.0
0.455449  0.139776  0.0
0.44566  0.135103  0.0
0.462581  0.136193  0.0
0.454535  0.137061  0.0
0.437552  0.135903  0.0
0.447204  0.140499  0.0
0.429736  0.139227  0.0
0.438182  0.138583  0.0
0.295722  0.103708  0.0
0.306353  0.109396  0.0
0.289248  0.10668  0.0
0.2971  0.106616  0.0
0.316935  0.115017  0.0
0.327445  0.120547  0.0
0.310617  0.11808  0.0
0.318328  0.117906  0.0
0.282982  0.109571  0.0
0.293761  0.115354  0.0
0.276893  0.112347  0.0
0.28454  0.112453  0.0
0.30145  0.115316  0.0
0.290728  0.109584  0.0
0.307749  0.112303  0.0
0.299976  0.112428  0.0
0.337978  0.125924  0.0
0.348996  0.131051  0.0
0.33192  0.128779  0.0
0.339623  0.128639  0.0
0.361874  0.136067  0.0
0.351359  0.133657  0.0
0.325362  0.13115  0.0
0.33362  0.131288  0.0
0.343686  0.133755  0.0
0.270759  0.114856  0.0
0.280227  0.120166  0.0
0.264268  0.116737  0.0
0.271631  0.117327  0.0
0.307045  0.128223  0.0
0.270586  0.121344  0.0
0.25407  0.11661  0.0
0.263364  0.118649  0.0
0.280086  0.122271  0.0
0.288771  0.124974  0.0
0.297841  0.125606  0.0
0.315717  0.128602  0.0
0.288413  0.120595  0.0
0.278367  0.115131  0.0
0.295172  0.118148  0.0
0.287425  0.118032  0.0
0.322567  0.126233  0.0
0.312024  0.120891  0.0
0.32886  0.12338  0.0
0.321151  0.12355  0.0
0.304269  0.120921  0.0
0.314622  0.126195  0.0
0.297342  0.123332  0.0
0.305451  0.123542  0.0
0.383757  0.138536  0.0
0.356304  0.130719  0.0
0.377229  0.136502  0.0
0.367905  0.135459  0.0
0.345619  0.125607  0.0
0.362159  0.127566  0.0
0.354573  0.127991  0.0
0.387069  0.134122  0.0
0.378498  0.12935  0.0
0.395072  0.131032  0.0
0.387074  0.131558  0.0
0.370816  0.129831  0.0
0.379301  0.134337  0.0
0.364698  0.132718  0.0
0.371624  0.132255  0.0
0.33518  0.120251  0.0
0.324737  0.114765  0.0
0.341698  0.11699  0.0
0.333866  0.117358  0.0
0.314227  0.109199  0.0
0.303672  0.103574  0.0
0.32089  0.106023  0.0
0.312923  0.106285  0.0
0.348392  0.11365  0.0
0.338079  0.108238  0.0
0.355244  0.11024  0.0
0.347234  0.110727  0.0
0.330092  0.108618  0.0
0.340466  0.114079  0.0
0.323424  0.111854  0.0
0.331322  0.111536  0.0
0.40233  0.127565  0.0
0.392479  0.122456  0.0
0.409414  0.123933  0.0
0.401418  0.124669  0.0
0.382484  0.117279  0.0
0.372392  0.112046  0.0
0.389527  0.113672  0.0
0.381466  0.114348  0.0
0.416551  0.120221  0.0
0.406655  0.115135  0.0
0.423778  0.116448  0.0
0.415661  0.117282  0.0
0.398566  0.115893  0.0
0.408496  0.121009  0.0
0.391496  0.119538  0.0
0.399516  0.118828  0.0
0.364357  0.112631  0.0
0.374497  0.117904  0.0
0.357488  0.11609  0.0
0.365444  0.115558  0.0
0.384526  0.123111  0.0
0.394363  0.12823  0.0
0.377631  0.126584  0.0
0.385497  0.12599  0.0
0.350769  0.119473  0.0
0.360963  0.124773  0.0
0.344236  0.122767  0.0
0.351994  0.122357  0.0
0.368753  0.124272  0.0
0.358635  0.119002  0.0
0.375556  0.120818  0.0
0.36765  0.121385  0.0
0.076744  0.02483  0.0
0.085438  0.029238  0.0
0.068936  0.023872  0.0
0.077013  0.025982  0.0
0.094394  0.034057  0.0
0.103656  0.039296  0.0
0.086661  0.03341  0.0
0.094874  0.035595  0.0
0.061143  0.022618  0.0
0.069882  0.027304  0.0
0.053367  0.02105  0.0
0.06143  0.023655  0.0
0.078033  0.029713  0.0
0.069214  0.024969  0.0
0.085799  0.030574  0.0
0.077651  0.028416  0.0
0.11327  0.044951  0.0
0.123277  0.051002  0.0
0.105792  0.044787  0.0
0.114082  0.046929  0.0
0.13371  0.057408  0.0
0.144579  0.064107  0.0
0.126753  0.057875  0.0
0.134983  0.059821  0.0
0.098402  0.044409  0.0
0.108916  0.051109  0.0
0.091117  0.04381  0.0
0.09944  0.046463  0.0
0.117197  0.053398  0.0
0.106705  0.046797  0.0
0.124306  0.053204  0.0
0.116024  0.051141  0.0
0.045598  0.019143  0.0
0.054371  0.024117  0.0
0.037788  0.016856  0.0
0.045886  0.020033  0.0
0.063616  0.029731  0.0
0.073435  0.03602  0.0
0.055977  0.027843  0.0
0.064292  0.031202  0.0
0.030159  0.014271  0.0
0.038953  0.019503  0.0
0.022877  0.011444  0.0
0.030551  0.015016  0.0
0.047109  0.023092  0.0
0.038083  0.01766  0.0
0.054822  0.025274  0.0
0.04663  0.021994  0.0
0.081776  0.039041  0.0
0.07189  0.032755  0.0
0.089211  0.039962  0.0
0.080907  0.037247  0.0
0.062551  0.027089  0.0
0.053658  0.022019  0.0
0.070286  0.028559  0.0
0.062125  0.02588  0.0
0.096717  0.040628  0.0
0.08718  0.03493  0.0
0.104285  0.04105  0.0
0.096022  0.038869  0.0
0.078956  0.032488  0.0
0.088438  0.038191  0.0
0.071275  0.03127  0.0
0.079519  0.03399  0.0
0.155869  0.071019  0.0
0.167536  0.078055  0.0
0.149697  0.072137  0.0
0.157672  0.07377  0.0
0.179501  0.085116  0.0
0.191665  0.092109  0.0
0.174172  0.086702  0.0
0.181757  0.088018  0.0
0.143913  0.073174  0.0
0.156476  0.080718  0.0
0.138562  0.074091  0.0
0.146287  0.076042  0.0
0.164129  0.082335  0.0
0.151774  0.074957  0.0
0.169587  0.080908  0.0
0.1618  0.079443  0.0
0.203983  0.098931  0.0
0.216719  0.105528  0.0
0.199123  0.100472  0.0
0.20659  0.101712  0.0
0.230618  0.112023  0.0
0.21978  0.108232  0.0
0.201656  0.102994  0.0
0.212183  0.106938  0.0
0.133417  0.074666  0.0
0.145228  0.081699  0.0
0.127964  0.074418  0.0
0.135436  0.077  0.0
0.174842  0.094933  0.0
0.128201  0.075644  0.0
0.118024  0.071058  0.0
0.136635  0.079907  0.0
0.14619  0.08338  0.0
0.15588  0.087849  0.0
0.164857  0.090642  0.0
0.183346  0.097152  0.0
0.193606  0.101275  0.0
0.153384  0.08413  0.0
0.141078  0.076885  0.0
0.158926  0.083532  0.0
0.151252  0.08165  0.0
0.189031  0.096442  0.0
0.176595  0.089545  0.0
0.194073  0.094986  0.0
0.186587  0.093737  0.0
0.169001  0.087992  0.0
0.181304  0.094841  0.0
0.163323  0.088603  0.0
0.171266  0.090583  0.0
0.016186  0.00853  0.0
0.023034  0.012887  0.0
0.007952  0.004377  0.0
0.015682  0.00854  0.0
0.033168  0.019728  0.0
0.044504  0.027867  0.0
0.025999  0.016293  0.0
0.034366  0.021217  0.0
0.00357  0.002131  0.0
0.0082  0.004744  0.0
0.017698  0.010823  0.0
0.023555  0.013709  0.0
0.016451  0.009728  0.0
0.058058  0.037536  0.0
0.074154  0.047994  0.0
0.052562  0.035304  0.0
0.061559  0.04043  0.0
0.092511  0.058641  0.0
0.070624  0.046336  0.0
0.056722  0.038037  0.0
0.079058  0.051166  0.0
0.017986  0.01234  0.0
0.032286  0.022208  0.0
0.0466  0.03162  0.0
0.006217  0.004228  0.0
0.009447  0.005838  0.0
0.003971  0.002607  0.0
0.009848  0.006314  0.0
0.040121  0.027113  0.0
0.027198  0.017647  0.0
0.046632  0.030143  0.0
0.037692  0.024847  0.0
0.019298  0.012653  0.0
0.029967  0.020435  0.0
0.010189  0.006835  0.0
0.019639  0.013174  0.0
0.082181  0.051986  0.0
0.11298  0.069095  0.0
0.099764  0.062228  0.0
0.066632  0.04194  0.0
0.086195  0.052398  0.0
0.078161  0.048828  0.0
0.118406  0.069576  0.0
0.104927  0.061488  0.0
0.123081  0.069542  0.0
0.115542  0.067033  0.0
0.097322  0.058585  0.0
0.111915  0.067219  0.0
0.094339  0.058746  0.0
0.101446  0.061774  0.0
0.053183  0.032527  0.0
0.041614  0.02427  0.0
0.060071  0.034597  0.0
0.051491  0.03042  0.0
0.031717  0.017473  0.0
0.023141  0.01201  0.0
0.039459  0.020527  0.0
0.03132  0.016606  0.0
0.067181  0.036373  0.0
0.056727  0.029301  0.0
0.074426  0.037849  0.0
0.066033  0.03449  0.0
0.048364  0.025574  0.0
0.058704  0.032628  0.0
0.040684  0.022838  0.0
0.049193  0.027018  0.0
0.128228  0.069077  0.0
0.115589  0.061122  0.0
0.133778  0.068383  0.0
0.125817  0.066238  0.0
0.103583  0.053337  0.0
0.092314  0.045927  0.0
0.11027  0.053439  0.0
0.101991  0.050911  0.0
0.139765  0.067588  0.0
0.128219  0.060362  0.0
0.146116  0.066707  0.0
0.137987  0.064908  0.0
0.120018  0.058216  0.0
0.131706  0.065618  0.0
0.113571  0.058442  0.0
0.121727  0.060792  0.0
0.083964  0.042987  0.0
0.095311  0.050558  0.0
0.07698  0.041937  0.0
0.085369  0.045191  0.0
0.107503  0.058565  0.0
0.120407  0.066747  0.0
0.101969  0.058599  0.0
0.10991  0.06135  0.0
0.070242  0.04067  0.0
0.083145  0.049476  0.0
0.063885  0.039207  0.0
0.072364  0.043172  0.0
0.091315  0.052774  0.0
0.078674  0.044264  0.0
0.097213  0.053105  0.0
0.088965  0.050065  0.0
0.237613  0.11288  0.0
0.223926  0.106451  0.0
0.248813  0.116524  0.0
0.211363  0.099894  0.0
0.228453  0.104314  0.0
0.221176  0.103597  0.0
0.256066  0.113876  0.0
0.245177  0.108233  0.0
0.2617  0.111807  0.0
0.25437  0.111417  0.0
0.237984  0.107736  0.0
0.249652  0.113535  0.0
0.233981  0.110011  0.0
0.240762  0.110579  0.0
0.199211  0.093161  0.0
0.187235  0.0863  0.0
0.204738  0.091186  0.0
0.197038  0.090253  0.0
0.17545  0.079388  0.0
0.163935  0.072505  0.0
0.181668  0.077793  0.0
0.173652  0.076588  0.0
0.210643  0.089125  0.0
0.199313  0.082609  0.0
0.216873  0.086992  0.0
0.208921  0.086269  0.0
0.191334  0.081658  0.0
0.202804  0.088298  0.0
0.185234  0.083425  0.0
0.193103  0.08449  0.0
0.267615  0.1093  0.0
0.256553  0.103275  0.0
0.273666  0.106584  0.0
0.265945  0.106419  0.0
0.245436  0.097153  0.0
0.234355  0.090977  0.0
0.251767  0.094598  0.0
0.243838  0.094268  0.0
0.279932  0.103765  0.0
0.269118  0.097886  0.0
0.286417  0.100869  0.0
0.278479  0.100863  0.0
0.261188  0.097725  0.0
0.272096  0.103682  0.0
0.25489  0.100378  0.0
0.262713  0.100619  0.0
0.226419  0.09046  0.0
0.237617  0.096736  0.0
0.220259  0.092722  0.0
0.228083  0.093333  0.0
0.248858  0.102947  0.0
0.260029  0.109035  0.0
0.243142  0.105412  0.0
0.250664  0.105825  0.0
0.214431  0.094907  0.0
0.22616  0.101424  0.0
0.208999  0.097  0.0
0.216519  0.097813  0.0
0.233656  0.102025  0.0
0.222113  0.095616  0.0
0.239377  0.099632  0.0
0.231697  0.099124  0.0
0.152759  0.065736  0.0
0.141962  0.05916  0.0
0.159635  0.064665  0.0
0.151416  0.063203  0.0
0.131562  0.05285  0.0
0.121552  0.046863  0.0
0.138938  0.052335  0.0
0.13065  0.05069  0.0
0.166701  0.063488  0.0
0.156405  0.057448  0.0
0.173924  0.062199  0.0
0.165648  0.061057  0.0
0.14812  0.056061  0.0
0.158451  0.062189  0.0
0.140843  0.056805  0.0
0.149113  0.058371  0.0
0.11191  0.04124  0.0
0.102601  0.036004  0.0
0.119587  0.041209  0.0
0.111336  0.039486  0.0
0.093587  0.031162  0.0
0.084828  0.026712  0.0
0.101399  0.031492  0.0
0.093245  0.029788  0.0
0.127313  0.040966  0.0
0.11816  0.036105  0.0
0.135086  0.04052  0.0
0.126828  0.0392  0.0
0.109948  0.03459  0.0
0.11906  0.039451  0.0
0.102156  0.034445  0.0
0.110363  0.036169  0.0
0.18128  0.060794  0.0
0.171331  0.055195  0.0
0.18875  0.05927  0.0
0.18043  0.058429  0.0
0.161624  0.049827  0.0
0.152153  0.044715  0.0
0.169337  0.048674  0.0
0.161015  0.047744  0.0
0.196319  0.057626  0.0
0.186618  0.05239  0.0
0.203977  0.05586  0.0
0.195617  0.0553  0.0
0.178275  0.051649  0.0
0.187979  0.056928  0.0
0.170606  0.052968  0.0
0.178935  0.053861  0.0
0.143858  0.043591  0.0
0.153313  0.048731  0.0
0.136122  0.04422  0.0
0.144409  0.045525  0.0
0.163017  0.054144  0.0
0.172981  0.059805  0.0
0.155518  0.055175  0.0
0.163817  0.05639  0.0
0.128442  0.044661  0.0
0.138122  0.050206  0.0
0.120823  0.044907  0.0
0.129103  0.046604  0.0
0.146416  0.051659  0.0
0.136724  0.046156  0.0
0.153981  0.050822  0.0
0.14568  0.049552  0.0
0.293106  0.097908  0.0
0.282565  0.092221  0.0
0.299978  0.094883  0.0
0.291873  0.095022  0.0
0.272081  0.086537  0.0
0.261684  0.080881  0.0
0.279207  0.083721  0.0
0.270977  0.083728  0.0
0.307016  0.091799  0.0
0.296713  0.086306  0.0
0.314201  0.088655  0.0
0.305966  0.088935  0.0
0.288482  0.086456  0.0
0.298841  0.092009  0.0
0.28139  0.089368  0.0
0.289561  0.089294  0.0
0.251399  0.07528  0.0
0.241247  0.069763  0.0
0.258786  0.072718  0.0
0.250461  0.0726  0.0
0.231243  0.064356  0.0
0.221397  0.059085  0.0
0.238865  0.06207  0.0
0.230484  0.061846  0.0
0.26629  0.070077  0.0
0.256369  0.064824  0.0
0.273901  0.067357  0.0
0.265506  0.06743  0.0
0.247981  0.064754  0.0
0.257929  0.070056  0.0
0.240398  0.067163  0.0
0.248756  0.067338  0.0
0.321522  0.085453  0.0
0.311423  0.080145  0.0
0.328964  0.082192  0.0
0.320626  0.082609  0.0
0.301396  0.074881  0.0
0.291453  0.069678  0.0
0.30902  0.071799  0.0
0.300611  0.07213  0.0
0.336519  0.078872  0.0
0.326595  0.073733  0.0
0.344177  0.075492  0.0
0.335754  0.076042  0.0
0.31818  0.074178  0.0
0.328137  0.079356  0.0
0.310581  0.077344  0.0
0.318957  0.076971  0.0
0.283051  0.069884  0.0
0.293025  0.075132  0.0
0.275473  0.072707  0.0
0.283839  0.072587  0.0
0.303091  0.080445  0.0
0.313232  0.085802  0.0
0.29572  0.083482  0.0
0.304005  0.083257  0.0
0.268005  0.075456  0.0
0.278195  0.08093  0.0
0.26066  0.07813  0.0
0.268941  0.078187  0.0
0.286478  0.080841  0.0
0.276331  0.075423  0.0
0.293878  0.077894  0.0
0.285549  0.078065  0.0
0.213025  0.058698  0.0
0.222889  0.064018  0.0
0.205412  0.060609  0.0
0.21376  0.061122  0.0
0.232923  0.069483  0.0
0.243115  0.075064  0.0
0.225567  0.071715  0.0
0.233854  0.072103  0.0
0.197895  0.062409  0.0
0.208022  0.068065  0.0
0.190488  0.064099  0.0
0.198784  0.064874  0.0
0.216313  0.068639  0.0
0.206218  0.063051  0.0
0.223721  0.066545  0.0
0.215398  0.06609  0.0
0.253452  0.080733  0.0
0.26391  0.086461  0.0
0.246399  0.083267  0.0
0.254574  0.083505  0.0
0.274463  0.092217  0.0
0.285079  0.097974  0.0
0.267721  0.095004  0.0
0.275743  0.095085  0.0
0.239524  0.085732  0.0
0.250315  0.091731  0.0
0.232853  0.088129  0.0
0.240883  0.088553  0.0
0.258338  0.091976  0.0
0.247633  0.086062  0.0
0.265117  0.089288  0.0
0.257015  0.089128  0.0
0.183207  0.065681  0.0
0.193689  0.071732  0.0
0.176073  0.067159  0.0
0.184302  0.068211  0.0
0.204407  0.077911  0.0
0.215331  0.08417  0.0
0.197742  0.07982  0.0
0.205808  0.080658  0.0
0.169112  0.068538  0.0
0.180086  0.075049  0.0
0.162362  0.069822  0.0
0.170496  0.071161  0.0
0.188182  0.076125  0.0
0.1773  0.069732  0.0
0.194939  0.07438  0.0
0.186779  0.073432  0.0
0.223375  0.08479  0.0
0.212543  0.078634  0.0
0.230108  0.082519  0.0
0.221989  0.082001  0.0
0.201899  0.072553  0.0
0.191472  0.066593  0.0
0.209032  0.070641  0.0
0.200778  0.069944  0.0
0.23704  0.080179  0.0
0.226592  0.07436  0.0
0.244144  0.077767  0.0
0.235908  0.077451  0.0
0.218348  0.073861  0.0
0.228858  0.079763  0.0
0.211286  0.075925  0.0
0.219481  0.076536  0.0
0.00463  0.002613  0.0
0.008365  0.00416  0.0
0.003322  0.001765  0.0
0.008456  0.004367  0.0
0.01583  0.007757  0.0
0.021672  0.010057  0.0
0.015017  0.007115  0.0
0.004321  0.00196  0.0
0.008046  0.003191  0.0
0.003153  0.001343  0.0
0.008071  0.003332  0.0
0.029723  0.013011  0.0
0.022059  0.009107  0.0
0.037433  0.015442  0.0
0.029655  0.012487  0.0
0.015395  0.006474  0.0
0.021531  0.009602  0.0
0.007474  0.003303  0.0
0.014798  0.006445  0.0
0.004209  0.001514  0.0
0.007901  0.002451  0.0
0.003082  0.001035  0.0
0.007909  0.002565  0.0
0.045126  0.017506  0.0
0.036829  0.01348  0.0
0.052879  0.019247  0.0
0.044925  0.016741  0.0
0.028955  0.009974  0.0
0.021599  0.00699  0.0
0.036601  0.011817  0.0
0.02898  0.009573  0.0
0.06067  0.020677  0.0
0.052357  0.016812  0.0
0.068471  0.021803  0.0
0.060473  0.01976  0.0
0.044475  0.014634  0.0
0.052683  0.018403  0.0
0.036705  0.012892  0.0
0.044604  0.015308  0.0
0.01506  0.004979  0.0
0.020956  0.007375  0.0
0.007291  0.002549  0.0
0.014442  0.004963  0.0
0.029146  0.010907  0.0
0.037252  0.014774  0.0
0.021953  0.008724  0.0
0.029368  0.011436  0.0
0.003129  0.001202  0.0
0.007338  0.002716  0.0
0.015264  0.00595  0.0
0.021023  0.00772  0.0
0.014556  0.005475  0.0
0.003231  0.001557  0.0
0.007552  0.003517  0.0
0.076289  0.022644  0.0
0.067937  0.018944  0.0
0.084127  0.023215  0.0
0.076095  0.0216  0.0
0.059747  0.015595  0.0
0.051701  0.012584  0.0
0.067548  0.016313  0.0
0.059644  0.014829  0.0
0.091987  0.023529  0.0
0.083611  0.019993  0.0
0.099871  0.023598  0.0
0.091803  0.022373  0.0
0.07562  0.018634  0.0
0.083938  0.022113  0.0
0.067794  0.018044  0.0
0.075763  0.019598  0.0
0.043783  0.009896  0.0
0.035937  0.007506  0.0
0.051491  0.01069  0.0
0.043725  0.009364  0.0
0.028374  0.005441  0.0
0.021236  0.003715  0.0
0.035949  0.006267  0.0
0.028448  0.005131  0.0
0.059253  0.011235  0.0
0.051348  0.008899  0.0
0.067044  0.011532  0.0
0.059197  0.010554  0.0
0.043609  0.007827  0.0
0.051437  0.010083  0.0
0.035908  0.00708  0.0
0.043642  0.00833  0.0
0.10778  0.023431  0.0
0.099382  0.02005  0.0
0.115717  0.023039  0.0
0.107608  0.022174  0.0
0.091106  0.016952  0.0
0.082938  0.014134  0.0
0.099014  0.01669  0.0
0.091002  0.015925  0.0
0.123684  0.022428  0.0
0.115265  0.019185  0.0
0.131682  0.021607  0.0
0.123527  0.021074  0.0
0.107179  0.018535  0.0
0.115552  0.021733  0.0
0.099248  0.01891  0.0
0.107309  0.019728  0.0
0.075004  0.01326  0.0
0.08312  0.016017  0.0
0.067179  0.013068  0.0
0.075084  0.014116  0.0
0.091345  0.019058  0.0
0.099692  0.02239  0.0
0.08347  0.018969  0.0
0.091483  0.020141  0.0
0.059386  0.01263  0.0
0.067443  0.015477  0.0
0.051627  0.01194  0.0
0.059465  0.013349  0.0
0.075374  0.016773  0.0
0.067258  0.013856  0.0
0.083226  0.016983  0.0
0.075268  0.01587  0.0
0.014804  0.002352  0.0
0.020481  0.002909  0.0
0.014161  0.002107  0.0
0.004114  0.000563  0.0
0.007782  0.000768  0.0
0.00303  0.000359  0.0
0.007774  0.000853  0.0
0.028285  0.003536  0.0
0.021195  0.002313  0.0
0.035836  0.003897  0.0
0.028378  0.003243  0.0
0.014783  0.001693  0.0
0.020472  0.002674  0.0
0.007144  0.000922  0.0
0.014152  0.001761  0.0
0.004108  0.000298  0.0
0.007766  0.000278  0.0
0.00302  0.000166  0.0
0.007759  0.000362  0.0
0.043412  0.004021  0.0
0.035691  0.002754  0.0
0.051093  0.003918  0.0
0.043392  0.003565  0.0
0.02824  0.001739  0.0
0.021159  0.000976  0.0
0.035778  0.001646  0.0
0.028332  0.001452  0.0
0.058844  0.003587  0.0
0.051065  0.002336  0.0
0.066634  0.003026  0.0
0.058832  0.002983  0.0
0.043375  0.002213  0.0
0.05108  0.003388  0.0
0.03569  0.002381  0.0
0.043378  0.002661  0.0
0.014756  0.000756  0.0
0.020437  0.001366  0.0
0.007128  0.000464  0.0
0.014125  0.000859  0.0
0.028239  0.002336  0.0
0.035821  0.003517  0.0
0.021182  0.002091  0.0
0.02835  0.002642  0.0
0.003037  0.000274  0.0
0.007145  0.000572  0.0
0.014777  0.001386  0.0
0.020435  0.001589  0.0
0.014141  0.00119  0.0
0.139713  0.020579  0.0
0.131275  0.017455  0.0
0.147779  0.019352  0.0
0.139573  0.01913  0.0
0.122932  0.014571  0.0
0.114675  0.011926  0.0
0.130974  0.01344  0.0
0.122845  0.013313  0.0
0.155882  0.01793  0.0
0.147426  0.014906  0.0
0.164024  0.016317  0.0
0.155763  0.016385  0.0
0.139229  0.014876  0.0
0.147649  0.017855  0.0
0.131164  0.016103  0.0
0.139332  0.016281  0.0
0.106498  0.009519  0.0
0.098395  0.007348  0.0
0.114499  0.008451  0.0
0.106449  0.008439  0.0
0.090359  0.005412  0.0
0.082385  0.003709  0.0
0.098305  0.004381  0.0
0.090335  0.0045  0.0
0.122541  0.00717  0.0
0.114387  0.005038  0.0
0.130626  0.00568  0.0
0.122503  0.005963  0.0
0.106339  0.00524  0.0
0.114455  0.007307  0.0
0.098359  0.006353  0.0
0.106369  0.006301  0.0
0.172207  0.014517  0.0
0.163736  0.01157  0.0
0.180433  0.012534  0.0
0.172111  0.012874  0.0
0.155342  0.008831  0.0
0.147017  0.006301  0.0
0.163552  0.006901  0.0
0.155289  0.007344  0.0
0.188705  0.010369  0.0
0.180224  0.007477  0.0
0.197026  0.008028  0.0
0.188638  0.008625  0.0
0.171897  0.007998  0.0
0.180351  0.01084  0.0
0.163664  0.010006  0.0
0.171957  0.009617  0.0
0.138822  0.006665  0.0
0.147114  0.009137  0.0
0.130709  0.008237  0.0
0.138867  0.008015  0.0
0.155477  0.011824  0.0
0.163916  0.014724  0.0
0.147332  0.013448  0.0
0.15556  0.013334  0.0
0.122638  0.009602  0.0
0.130894  0.012125  0.0
0.114609  0.010759  0.0
0.122699  0.01083  0.0
0.139055  0.012104  0.0
0.130762  0.009525  0.0
0.147177  0.010566  0.0
0.138983  0.010732  0.0
0.074496  0.003746  0.0
0.082428  0.005379  0.0
0.066664  0.004389  0.0
0.074514  0.004505  0.0
0.090422  0.007248  0.0
0.098483  0.009355  0.0
0.082524  0.007921  0.0
0.090461  0.008176  0.0
0.058877  0.004804  0.0
0.066737  0.006463  0.0
0.051135  0.004989  0.0
0.058899  0.005419  0.0
0.074591  0.006807  0.0
0.066684  0.005076  0.0
0.082455  0.006221  0.0
0.074562  0.006034  0.0
0.106618  0.011702  0.0
0.114833  0.014292  0.0
0.098664  0.012429  0.0
0.106689  0.012809  0.0
0.123135  0.017125  0.0
0.131533  0.020205  0.0
0.115141  0.017938  0.0
0.123254  0.018425  0.0
0.090745  0.012935  0.0
0.098913  0.015603  0.0
0.082859  0.013214  0.0
0.090822  0.013919  0.0
0.106954  0.016201  0.0
0.098739  0.013475  0.0
0.114926  0.015493  0.0
0.106856  0.015057  0.0
0.043449  0.004943  0.0
0.051201  0.006627  0.0
0.035759  0.004656  0.0
0.043464  0.005409  0.0
0.059052  0.008572  0.0
0.066985  0.010781  0.0
0.051305  0.00832  0.0
0.059096  0.009224  0.0
0.028318  0.004164  0.0
0.035931  0.005862  0.0
0.02124  0.003483  0.0
0.028434  0.004494  0.0
0.043548  0.006844  0.0
0.035782  0.005049  0.0
0.051229  0.007185  0.0
0.043516  0.00636  0.0
0.074867  0.011589  0.0
0.066883  0.00931  0.0
0.082722  0.01141  0.0
0.074808  0.010769  0.0
0.058981  0.007292  0.0
0.051157  0.00553  0.0
0.066768  0.007165  0.0
0.058952  0.006662  0.0
0.090612  0.011003  0.0
0.082565  0.008781  0.0
0.098537  0.010371  0.0
0.090556  0.010052  0.0
0.074664  0.008369  0.0
0.082664  0.010524  0.0
0.06684  0.008587  0.0
0.074707  0.009161  0.0
0.003029  0.00047  0.0
0.007143  0.001032  0.0
0.014812  0.002677  0.0
0.020533  0.004062  0.0
0.007169  0.001407  0.0
0.014183  0.002714  0.0
0.028427  0.006122  0.0
0.036121  0.008404  0.0
0.021335  0.004986  0.0
0.028554  0.006488  0.0
0.003055  0.000685  0.0
0.007184  0.001529  0.0
0.014873  0.003393  0.0
0.020556  0.004317  0.0
0.014221  0.003091  0.0
0.043906  0.010991  0.0
0.051868  0.013916  0.0
0.036178  0.009762  0.0
0.043971  0.011556  0.0
0.059992  0.017188  0.0
0.068275  0.02082  0.0
0.052216  0.016055  0.0
0.060135  0.01802  0.0
0.028674  0.008315  0.0
0.036509  0.01129  0.0
0.021546  0.006686  0.0
0.028835  0.008742  0.0
0.044242  0.01335  0.0
0.036246  0.010248  0.0
0.05197  0.014609  0.0
0.04414  0.012735  0.0
0.003074  0.000921  0.0
0.007229  0.002076  0.0
0.014999  0.004561  0.0
0.020712  0.005883  0.0
0.014327  0.004185  0.0
0.004155  0.001154  0.0
0.007836  0.001832  0.0
0.003055  0.000784  0.0
0.007835  0.001931  0.0
0.028588  0.007546  0.0
0.021378  0.00525  0.0
0.036172  0.008855  0.0
0.028646  0.007203  0.0
0.014915  0.003757  0.0
0.020694  0.0056  0.0
0.00721  0.001938  0.0
0.014289  0.003765  0.0
0.004128  0.000844  0.0
0.007786  0.001277  0.0
0.003041  0.000563  0.0
0.007798  0.00137  0.0
0.501052  0.14581  0.0
0.510535  0.146253  0.0
0.489582  0.14168  0.0
0.517191  0.147955  0.0
0.479468  0.137145  0.0
0.496163  0.137955  0.0
0.488251  0.138952  0.0
0.520787  0.143116  0.0
0.512676  0.138701  0.0
0.529434  0.139424  0.0
0.521136  0.14045  0.0
0.504677  0.13971  0.0
0.512782  0.14384  0.0
0.497949  0.143157  0.0
0.505131  0.142184  0.0
0.469832  0.132379  0.0
0.460264  0.127511  0.0
0.477235  0.128459  0.0
0.469107  0.129463  0.0
0.450624  0.122589  0.0
0.440901  0.117625  0.0
0.458025  0.118677  0.0
0.44985  0.119642  0.0
0.484725  0.12448  0.0
0.475153  0.119615  0.0
0.492288  0.12045  0.0
0.484056  0.121525  0.0
0.46695  0.120638  0.0
0.476543  0.125521  0.0
0.45952  0.124575  0.0
0.467671  0.123589  0.0
0.537435  0.135432  0.0
0.528213  0.130725  0.0
0.545254  0.131316  0.0
0.536977  0.132501  0.0
0.51887  0.125976  0.0
0.509431  0.121191  0.0
0.526583  0.121846  0.0
0.518296  0.123013  0.0
0.553071  0.127145  0.0
0.543746  0.122425  0.0
0.560921  0.122933  0.0
0.552581  0.124175  0.0
0.535432  0.123631  0.0
0.544766  0.128361  0.0
0.527686  0.127776  0.0
0.535961  0.126597  0.0
0.501171  0.122314  0.0
0.510624  0.127113  0.0
0.493577  0.126364  0.0
0.501791  0.125273  0.0
0.519973  0.13187  0.0
0.529163  0.13657  0.0
0.512276  0.135889  0.0
0.520464  0.134784  0.0
0.486052  0.130359  0.0
0.495474  0.135132  0.0
0.478638  0.134285  0.0
0.48673  0.133269  0.0
0.503586  0.134076  0.0
0.494212  0.129305  0.0
0.5112  0.130058  0.0
0.503003  0.131158  0.0
0.431103  0.112623  0.0
0.421246  0.107587  0.0
0.438522  0.108747  0.0
0.430289  0.109664  0.0
0.411347  0.102523  0.0
0.40142  0.097438  0.0
0.418831  0.098706  0.0
0.410529  0.099567  0.0
0.446033  0.104824  0.0
0.436233  0.099842  0.0
0.453631  0.100857  0.0
0.445296  0.101851  0.0
0.427916  0.100773  0.0
0.437747  0.10578  0.0
0.420426  0.104627  0.0
0.428693  0.103738  0.0
0.391484  0.092342  0.0
0.381552  0.087243  0.0
0.399068  0.088609  0.0
0.390695  0.089409  0.0
0.37164  0.082154  0.0
0.361763  0.077086  0.0
0.379349  0.078528  0.0
0.37091  0.079265  0.0
0.406749  0.084828  0.0
0.396935  0.079829  0.0
0.41452  0.081  0.0
0.406062  0.081894  0.0
0.388487  0.080649  0.0
0.398332  0.085676  0.0
0.380789  0.08433  0.0
0.389197  0.083561  0.0
0.461313  0.096847  0.0
0.451582  0.091919  0.0
0.469077  0.092796  0.0
0.460654  0.093863  0.0
0.441842  0.086985  0.0
0.432103  0.08205  0.0
0.449683  0.08299  0.0
0.441205  0.084016  0.0
0.476919  0.088705  0.0
0.467261  0.083828  0.0
0.484835  0.084574  0.0
0.476335  0.08571  0.0
0.458771  0.084912  0.0
0.468456  0.089806  0.0
0.450931  0.088941  0.0
0.459382  0.087894  0.0
0.423635  0.083013  0.0
0.433403  0.087971  0.0
0.41587  0.086886  0.0
0.424297  0.085966  0.0
0.443173  0.092928  0.0
0.452933  0.097878  0.0
0.435499  0.096873  0.0
0.443865  0.095902  0.0
0.408194  0.090712  0.0
0.41806  0.095747  0.0
0.400613  0.094491  0.0
0.408951  0.093661  0.0
0.426411  0.094844  0.0
0.416578  0.089836  0.0
0.434083  0.090936  0.0
0.425686  0.091882  0.0
0.568812  0.118684  0.0
0.559454  0.113966  0.0
0.576747  0.114401  0.0
0.568338  0.11569  0.0
0.550041  0.109224  0.0
0.540579  0.10446  0.0
0.557968  0.104946  0.0
0.549529  0.106217  0.0
0.584727  0.110085  0.0
0.575359  0.10537  0.0
0.592753  0.105739  0.0
0.58428  0.10707  0.0
0.566903  0.106673  0.0
0.576285  0.111396  0.0
0.558959  0.110965  0.0
0.567382  0.109684  0.0
0.531076  0.099677  0.0
0.521541  0.094875  0.0
0.539024  0.095412  0.0
0.530546  0.096661  0.0
0.511982  0.09006  0.0
0.502407  0.085235  0.0
0.519975  0.08582  0.0
0.511452  0.087045  0.0
0.547034  0.091114  0.0
0.537541  0.086334  0.0
0.555104  0.086785  0.0
0.546558  0.088083  0.0
0.529006  0.087598  0.0
0.538521  0.092389  0.0
0.521009  0.091859  0.0
0.529509  0.090621  0.0
0.600827  0.101363  0.0
0.591467  0.09665  0.0
0.608948  0.096959  0.0
0.600413  0.098329  0.0
0.582078  0.091921  0.0
0.572664  0.087179  0.0
0.590222  0.087521  0.0
0.581653  0.088878  0.0
0.617116  0.092528  0.0
0.607778  0.087817  0.0
0.625332  0.088071  0.0
0.616741  0.089476  0.0
0.599198  0.089199  0.0
0.608553  0.093916  0.0
0.591047  0.093611  0.0
0.599598  0.092247  0.0
0.564107  0.088508  0.0
0.573539  0.093259  0.0
0.556031  0.092853  0.0
0.564557  0.091546  0.0
0.582947  0.097995  0.0
0.592322  0.102714  0.0
0.574899  0.102349  0.0
0.583388  0.101025  0.0
0.548013  0.097167  0.0
0.557476  0.101929  0.0
0.540055  0.101448  0.0
0.548513  0.100188  0.0
0.56595  0.100635  0.0
0.556506  0.095882  0.0
0.573987  0.096293  0.0
0.56548  0.097609  0.0
0.493895  0.086418  0.0
0.503494  0.091257  0.0
0.485977  0.090575  0.0
0.494452  0.089424  0.0
0.513077  0.096086  0.0
0.522634  0.1009  0.0
0.505212  0.100277  0.0
0.513638  0.099095  0.0
0.478132  0.094694  0.0
0.487788  0.099571  0.0
0.470362  0.098774  0.0
0.478758  0.097688  0.0
0.496199  0.098434  0.0
0.486568  0.093575  0.0
0.504056  0.094266  0.0
0.495605  0.095433  0.0
0.532157  0.105696  0.0
0.541637  0.110471  0.0
0.524319  0.109908  0.0
0.532703  0.108699  0.0
0.551066  0.115223  0.0
0.560437  0.11995  0.0
0.543225  0.119446  0.0
0.551576  0.118213  0.0
0.516542  0.114083  0.0
0.526021  0.118871  0.0
0.508826  0.118219  0.0
0.517129  0.117066  0.0
0.534349  0.117676  0.0
0.524886  0.112901  0.0
0.542168  0.113468  0.0
0.533801  0.11469  0.0
0.462672  0.102814  0.0
0.472377  0.107729  0.0
0.455063  0.106811  0.0
0.463368  0.105794  0.0
0.482037  0.11262  0.0
0.491638  0.117482  0.0
0.474456  0.116652  0.0
0.482709  0.115594  0.0
0.447539  0.110764  0.0
0.457278  0.115718  0.0
0.440102  0.11467  0.0
0.448304  0.113728  0.0
0.465506  0.114715  0.0
0.455794  0.109784  0.0
0.473065  0.110708  0.0
0.464788  0.111746  0.0
0.499916  0.116375  0.0
0.490337  0.11153  0.0
0.50761  0.112258  0.0
0.499287  0.113396  0.0
0.480702  0.106657  0.0
0.471024  0.101762  0.0
0.488414  0.102566  0.0
0.480045  0.10367  0.0
0.515368  0.108101  0.0
0.505802  0.103278  0.0
0.52319  0.103907  0.0
0.514786  0.105103  0.0
0.497416  0.10443  0.0
0.507004  0.109269  0.0
0.48969  0.108546  0.0
0.498035  0.107423  0.0
0.351931  0.072051  0.0
0.342157  0.067063  0.0
0.359774  0.06855  0.0
0.351278  0.06923  0.0
0.33245  0.062135  0.0
0.322818  0.05728  0.0
0.340426  0.058771  0.0
0.331888  0.059402  0.0
0.367701  0.064988  0.0
0.358057  0.06013  0.0
0.375707  0.061365  0.0
0.367147  0.062168  0.0
0.349508  0.060851  0.0
0.359172  0.06573  0.0
0.341549  0.064284  0.0
0.350068  0.06363  0.0
0.313267  0.05251  0.0
0.303801  0.047837  0.0
0.321364  0.049287  0.0
0.312799  0.049883  0.0
0.294423  0.043274  0.0
0.285136  0.03883  0.0
0.302625  0.040187  0.0
0.29405  0.040768  0.0
0.329528  0.045978  0.0
0.320168  0.041437  0.0
0.337757  0.042585  0.0
0.329141  0.043338  0.0
0.311571  0.042106  0.0
0.320938  0.046654  0.0
0.303381  0.04527  0.0
0.311953  0.044683  0.0
0.383788  0.057679  0.0
0.374259  0.052931  0.0
0.391941  0.053932  0.0
0.383321  0.054853  0.0
0.36479  0.048246  0.0
0.355386  0.043635  0.0
0.373048  0.044593  0.0
0.364399  0.045496  0.0
0.400163  0.050123  0.0
0.390738  0.045464  0.0
0.408451  0.046253  0.0
0.399776  0.047284  0.0
0.382075  0.046434  0.0
0.391515  0.0511  0.0
0.37383  0.050141  0.0
0.382465  0.049231  0.0
0.346752  0.044466  0.0
0.356168  0.049084  0.0
0.338536  0.047924  0.0
0.347143  0.047164  0.0
0.365651  0.053779  0.0
0.375197  0.058542  0.0
0.357543  0.057349  0.0
0.366122  0.056564  0.0
0.330385  0.051301  0.0
0.33991  0.056037  0.0
0.322303  0.054598  0.0
0.330857  0.053986  0.0
0.348477  0.055335  0.0
0.338966  0.050614  0.0
0.356599  0.051827  0.0
0.348004  0.052598  0.0
0.275939  0.034516  0.0
0.266832  0.030339  0.0
0.284225  0.031552  0.0
0.275653  0.032139  0.0
0.257813  0.026309  0.0
0.248881  0.02243  0.0
0.266161  0.023449  0.0
0.257606  0.024065  0.0
0.292565  0.028473  0.0
0.283524  0.0244  0.0
0.30096  0.025282  0.0
0.292338  0.026054  0.0
0.274934  0.025095  0.0
0.283969  0.029154  0.0
0.266587  0.028029  0.0
0.275151  0.02743  0.0
0.240031  0.018711  0.0
0.231262  0.015155  0.0
0.248422  0.015934  0.0
0.239892  0.016601  0.0
0.222569  0.011767  0.0
0.213949  0.008552  0.0
0.230984  0.009047  0.0
0.222488  0.009789  0.0
0.256864  0.013014  0.0
0.248124  0.009515  0.0
0.26536  0.009954  0.0
0.256771  0.010828  0.0
0.239579  0.010324  0.0
0.248305  0.013786  0.0
0.231153  0.013111  0.0
0.239667  0.01241  0.0
0.309411  0.02198  0.0
0.300431  0.017981  0.0
0.317917  0.018568  0.0
0.309242  0.019511  0.0
0.291523  0.014107  0.0
0.282683  0.010364  0.0
0.300086  0.010745  0.0
0.29142  0.011739  0.0
0.326479  0.015049  0.0
0.31756  0.011099  0.0
0.335098  0.011426  0.0
0.326369  0.012525  0.0
0.308861  0.012147  0.0
0.317777  0.016072  0.0
0.300296  0.015562  0.0
0.308968  0.014596  0.0
0.274054  0.011299  0.0
0.282885  0.015012  0.0
0.265552  0.01442  0.0
0.274152  0.013579  0.0
0.291788  0.01886  0.0
0.300763  0.022839  0.0
0.283334  0.022038  0.0
0.29195  0.021249  0.0
0.257104  0.017405  0.0
0.26598  0.021177  0.0
0.248709  0.020254  0.0
0.257252  0.019615  0.0
0.274562  0.020461  0.0
0.265676  0.016664  0.0
0.283015  0.017346  0.0
0.274406  0.018158  0.0
0.416803  0.042322  0.0
0.407473  0.037734  0.0
0.425217  0.038332  0.0
0.41649  0.039466  0.0
0.398197  0.033208  0.0
0.388977  0.02875  0.0
0.406701  0.029273  0.0
0.39795  0.030413  0.0
0.433692  0.034282  0.0
0.424452  0.029747  0.0
0.442226  0.030174  0.0
0.43345  0.031403  0.0
0.415688  0.030933  0.0
0.42494  0.035465  0.0
0.407193  0.034908  0.0
0.415933  0.033772  0.0
0.379815  0.024367  0.0
0.370713  0.020065  0.0
0.388403  0.020481  0.0
0.379635  0.021639  0.0
0.361672  0.01585  0.0
0.352693  0.011727  0.0
0.370337  0.012002  0.0
0.361558  0.013193  0.0
0.397048  0.016519  0.0
0.388025  0.012254  0.0
0.40575  0.012483  0.0
0.396933  0.013752  0.0
0.379225  0.013486  0.0
0.388255  0.017735  0.0
0.370566  0.017373  0.0
0.379341  0.0162  0.0
0.450817  0.02601  0.0
0.441664  0.021513  0.0
0.459465  0.021791  0.0
0.450642  0.023106  0.0
0.43256  0.017071  0.0
0.423507  0.01269  0.0
0.441291  0.012877  0.0
0.432445  0.014214  0.0
0.468167  0.01752  0.0
0.459097  0.013046  0.0
0.476922  0.013197  0.0
0.468056  0.014588  0.0
0.45024  0.014411  0.0
0.459322  0.018874  0.0
0.441519  0.018632  0.0
0.450354  0.017307  0.0
0.414674  0.013995  0.0
0.423737  0.018362  0.0
0.405981  0.018064  0.0
0.41479  0.016809  0.0
0.432852  0.022793  0.0
0.442017  0.027283  0.0
0.424241  0.026895  0.0
0.43303  0.02566  0.0
0.397343  0.022062  0.0
0.406488  0.026464  0.0
0.388763  0.025988  0.0
0.397524  0.024841  0.0
0.415264  0.025271  0.0
0.406128  0.02086  0.0
0.423884  0.021203  0.0
0.415084  0.022446  0.0
0.343937  0.012874  0.0
0.352919  0.016976  0.0
0.335321  0.016543  0.0
0.34405  0.015467  0.0
0.361964  0.021175  0.0
0.371072  0.025464  0.0
0.35342  0.02489  0.0
0.362143  0.023846  0.0
0.326761  0.020112  0.0
0.335813  0.024263  0.0
0.318258  0.023579  0.0
0.326934  0.022655  0.0
0.344514  0.023276  0.0
0.335463  0.01911  0.0
0.353065  0.019609  0.0
0.344338  0.020666  0.0
0.380241  0.029839  0.0
0.389471  0.034292  0.0
0.371778  0.033613  0.0
0.380489  0.032585  0.0
0.398758  0.038816  0.0
0.408101  0.043406  0.0
0.390385  0.042659  0.0
0.399074  0.041632  0.0
0.363375  0.03731  0.0
0.372694  0.041834  0.0
0.355032  0.040927  0.0
0.363692  0.040029  0.0
0.381369  0.040869  0.0
0.37206  0.036345  0.0
0.389752  0.037073  0.0
0.381052  0.038099  0.0
0.309811  0.026942  0.0
0.318935  0.031164  0.0
0.301421  0.030199  0.0
0.310045  0.029439  0.0
0.328134  0.035497  0.0
0.337406  0.039934  0.0
0.319822  0.038849  0.0
0.328444  0.038099  0.0
0.293086  0.033348  0.0
0.302287  0.037668  0.0
0.284807  0.036388  0.0
0.293382  0.035807  0.0
0.310887  0.037  0.0
0.301686  0.032676  0.0
0.319207  0.033714  0.0
0.310582  0.034466  0.0
0.346048  0.039107  0.0
0.336781  0.034669  0.0
0.354401  0.035545  0.0
0.345733  0.036444  0.0
0.327585  0.030331  0.0
0.318462  0.026098  0.0
0.336021  0.026851  0.0
0.327346  0.027762  0.0
0.362813  0.0319  0.0
0.353631  0.027542  0.0
0.371285  0.028174  0.0
0.362567  0.029208  0.0
0.344933  0.028517  0.0
0.354121  0.032868  0.0
0.336504  0.032053  0.0
0.345177  0.03115  0.0
0.633595  0.08359  0.0
0.624288  0.078879  0.0
0.641904  0.079085  0.0
0.633261  0.080521  0.0
0.614968  0.074159  0.0
0.60564  0.069431  0.0
0.623318  0.069655  0.0
0.61464  0.071085  0.0
0.650259  0.074557  0.0
0.640991  0.069846  0.0
0.65866  0.070008  0.0
0.649968  0.071474  0.0
0.632306  0.071295  0.0
0.641592  0.076009  0.0
0.623955  0.075807  0.0
0.632616  0.074374  0.0
0.596309  0.064698  0.0
0.586979  0.059964  0.0
0.604711  0.0602  0.0
0.595997  0.061624  0.0
0.577657  0.055232  0.0
0.568345  0.050504  0.0
0.586121  0.050744  0.0
0.577371  0.052163  0.0
0.613163  0.055678  0.0
0.603895  0.050953  0.0
0.621664  0.051132  0.0
0.612904  0.05259  0.0
0.595139  0.052392  0.0
0.604426  0.057119  0.0
0.586679  0.056892  0.0
0.595412  0.055471  0.0
0.667104  0.065439  0.0
0.657879  0.060726  0.0
0.675592  0.06085  0.0
0.666857  0.062341  0.0
0.648653  0.056007  0.0
0.639429  0.051286  0.0
0.657188  0.051416  0.0
0.648421  0.052905  0.0
0.684121  0.056243  0.0
0.674943  0.051527  0.0
0.692691  0.051619  0.0
0.683916  0.053132  0.0
0.666171  0.053028  0.0
0.675366  0.057745  0.0
0.657638  0.057625  0.0
0.66639  0.056135  0.0
0.630665  0.05276  0.0
0.639906  0.057483  0.0
0.622168  0.057315  0.0
0.63091  0.055855  0.0
0.649149  0.062203  0.0
0.65839  0.066917  0.0
0.640704  0.066759  0.0
0.649412  0.065296  0.0
0.613719  0.061848  0.0
0.623014  0.066574  0.0
0.605319  0.066356  0.0
0.614014  0.064929  0.0
0.631716  0.065127  0.0
0.622438  0.060404  0.0
0.640161  0.060578  0.0
0.631436  0.062039  0.0
0.559049  0.045786  0.0
0.549774  0.04108  0.0
0.567585  0.041313  0.0
0.558798  0.042728  0.0
0.540523  0.03639  0.0
0.5313  0.031721  0.0
0.549134  0.031933  0.0
0.540314  0.03335  0.0
0.576171  0.036811  0.0
0.56697  0.032119  0.0
0.584806  0.032282  0.0
0.575978  0.033739  0.0
0.558146  0.033558  0.0
0.567363  0.038248  0.0
0.549543  0.03803  0.0
0.558347  0.036615  0.0
0.522109  0.027077  0.0
0.512953  0.022461  0.0
0.530801  0.022636  0.0
0.521949  0.02406  0.0
0.503836  0.017878  0.0
0.49476  0.013332  0.0
0.51261  0.013452  0.0
0.50373  0.014888  0.0
0.539542  0.018161  0.0
0.530468  0.013558  0.0
0.54833  0.013652  0.0
0.539442  0.015124  0.0
0.521583  0.015014  0.0
0.530671  0.01961  0.0
0.51282  0.019457  0.0
0.521686  0.018028  0.0
0.593487  0.027727  0.0
0.584361  0.023045  0.0
0.602214  0.023147  0.0
0.59335  0.024641  0.0
0.575263  0.018379  0.0
0.566196  0.013734  0.0
0.584063  0.013806  0.0
0.575169  0.015307  0.0
0.610983  0.018545  0.0
0.601928  0.013868  0.0
0.619792  0.013922  0.0
0.610897  0.015446  0.0
0.593034  0.015382  0.0
0.602103  0.020055  0.0
0.584245  0.019965  0.0
0.593123  0.018468  0.0
0.557305  0.015222  0.0
0.566386  0.019862  0.0
0.548527  0.019744  0.0
0.557401  0.018277  0.0
0.575499  0.024523  0.0
0.584641  0.029203  0.0
0.566799  0.029055  0.0
0.575642  0.027596  0.0
0.539797  0.024235  0.0
0.548956  0.028885  0.0
0.531115  0.028692  0.0
0.539951  0.027273  0.0
0.557796  0.027445  0.0
0.548652  0.022791  0.0
0.566506  0.022926  0.0
0.557647  0.024389  0.0
0.7013  0.046979  0.0
0.69217  0.042258  0.0
0.709946  0.042323  0.0
0.701137  0.043855  0.0
0.683047  0.037535  0.0
0.673934  0.032813  0.0
0.691744  0.032876  0.0
0.682906  0.034409  0.0
0.718629  0.037654  0.0
0.709548  0.032929  0.0
0.727345  0.032972  0.0
0.718505  0.034519  0.0
0.700709  0.03447  0.0
0.709803  0.039194  0.0
0.692017  0.039133  0.0
0.700841  0.0376  0.0
0.664835  0.028093  0.0
0.655753  0.023377  0.0
0.673589  0.023432  0.0
0.664723  0.024968  0.0
0.64669  0.018669  0.0
0.637652  0.013969  0.0
0.655507  0.014008  0.0
0.646613  0.015549  0.0
0.682379  0.018757  0.0
0.673357  0.014042  0.0
0.691201  0.01407  0.0
0.68231  0.015624  0.0
0.664464  0.015589  0.0
0.673499  0.020303  0.0
0.655657  0.020255  0.0
0.664537  0.018717  0.0
0.736093  0.028278  0.0
0.727061  0.023549  0.0
0.744872  0.023574  0.0
0.736007  0.025135  0.0
0.718042  0.01882  0.0
0.709039  0.014093  0.0
0.72687  0.014113  0.0
0.717981  0.015676  0.0
0.753679  0.018862  0.0
0.744694  0.014128  0.0
0.762511  0.014141  0.0
0.753626  0.015711  0.0
0.735807  0.015695  0.0
0.744803  0.020427  0.0
0.726987  0.020404  0.0
0.735864  0.018843  0.0
0.700149  0.015652  0.0
0.709164  0.020377  0.0
0.691335  0.020343  0.0
0.700214  0.018792  0.0
0.718196  0.025104  0.0
0.72724  0.029832  0.0
0.709436  0.029793  0.0
0.718288  0.028244  0.0
0.682553  0.025022  0.0
0.691624  0.029745  0.0
0.673807  0.029687  0.0
0.682659  0.028153  0.0
0.700477  0.028203  0.0
0.69142  0.023479  0.0
0.709244  0.023517  0.0
0.700378  0.025067  0.0
0.628757  0.015502  0.0
0.63781  0.020198  0.0
0.619958  0.020132  0.0
0.628839  0.018612  0.0
0.646886  0.024905  0.0
0.655983  0.029619  0.0
0.638154  0.029537  0.0
0.647005  0.028022  0.0
0.611199  0.024742  0.0
0.62032  0.029442  0.0
0.602482  0.029331  0.0
0.61133  0.02784  0.0
0.62917  0.027938  0.0
0.620064  0.023236  0.0
0.637911  0.023312  0.0
0.629045  0.02483  0.0
0.665097  0.034337  0.0
0.674224  0.039059  0.0
0.656426  0.038971  0.0
0.665246  0.037458  0.0
0.683362  0.043781  0.0
0.692507  0.048501  0.0
0.674747  0.048413  0.0
0.683537  0.0469  0.0
0.647796  0.043587  0.0
0.65698  0.048308  0.0
0.639208  0.048184  0.0
0.647992  0.046695  0.0
0.665767  0.046807  0.0
0.656599  0.042085  0.0
0.674387  0.042179  0.0
0.665582  0.043692  0.0
0.593809  0.033897  0.0
0.602999  0.038603  0.0
0.585183  0.038438  0.0
0.593993  0.036982  0.0
0.612208  0.043317  0.0
0.621431  0.048037  0.0
0.60365  0.047867  0.0
0.612426  0.04641  0.0
0.576604  0.042953  0.0
0.585864  0.047669  0.0
0.568076  0.047441  0.0
0.576844  0.046024  0.0
0.594637  0.046231  0.0
0.585394  0.041516  0.0
0.603202  0.041692  0.0
0.594408  0.043148  0.0
0.630212  0.046564  0.0
0.621005  0.041844  0.0
0.638804  0.041974  0.0
0.630004  0.043463  0.0
0.611813  0.037129  0.0
0.602639  0.032423  0.0
0.62047  0.032544  0.0
0.611638  0.034034  0.0
0.64744  0.037365  0.0
0.638296  0.032649  0.0
0.656118  0.032738  0.0
0.647282  0.034252  0.0
0.629462  0.034151  0.0
0.638622  0.038867  0.0
0.620813  0.038745  0.0
0.629629  0.037257  0.0
0.485887  0.014747  0.0
0.494976  0.019285  0.0
0.477142  0.019091  0.0
0.485996  0.017709  0.0
0.504107  0.023861  0.0
0.513278  0.028472  0.0
0.495446  0.028224  0.0
0.504272  0.026855  0.0
0.46845  0.023387  0.0
0.477624  0.027945  0.0
0.459813  0.027633  0.0
0.468623  0.026324  0.0
0.486442  0.026605  0.0
0.477282  0.022041  0.0
0.495113  0.022263  0.0
0.486273  0.023638  0.0
0.522484  0.033114  0.0
0.531724  0.037782  0.0
0.513906  0.037499  0.0
0.5227  0.036135  0.0
0.540992  0.042471  0.0
0.550285  0.047179  0.0
0.532494  0.04688  0.0
0.541253  0.045513  0.0
0.505383  0.041847  0.0
0.514704  0.04654  0.0
0.496916  0.046155  0.0
0.505663  0.044851  0.0
0.523457  0.045203  0.0
0.514154  0.040512  0.0
0.531963  0.040814  0.0
0.523186  0.042179  0.0
0.451231  0.031826  0.0
0.460491  0.036417  0.0
0.442707  0.035967  0.0
0.45147  0.03474  0.0
0.469793  0.041051  0.0
0.479133  0.045721  0.0
0.461358  0.045234  0.0
0.470089  0.044006  0.0
0.434242  0.040052  0.0
0.443591  0.044689  0.0
0.425838  0.044081  0.0
0.434551  0.042945  0.0
0.452314  0.043505  0.0
0.442981  0.03887  0.0
0.460759  0.039353  0.0
0.452011  0.040579  0.0
0.487873  0.044453  0.0
0.478549  0.039785  0.0
0.496348  0.04017  0.0
0.487584  0.041472  0.0
0.469263  0.035151  0.0
0.460018  0.030558  0.0
0.477825  0.030902  0.0
0.469029  0.032206  0.0
0.504881  0.035845  0.0
0.495642  0.031208  0.0
0.513468  0.03148  0.0
0.504658  0.032847  0.0
0.486839  0.032545  0.0
0.496093  0.03718  0.0
0.478287  0.036821  0.0
0.487068  0.035518  0.0
0.559599  0.0519  0.0
0.56893  0.05663  0.0
0.551177  0.056329  0.0
0.559898  0.054956  0.0
0.578271  0.061366  0.0
0.58762  0.066104  0.0
0.569917  0.065812  0.0
0.578599  0.064431  0.0
0.54281  0.060727  0.0
0.55221  0.065477  0.0
0.534501  0.065094  0.0
0.54317  0.06377  0.0
0.560886  0.064123  0.0
0.551506  0.059379  0.0
0.569244  0.059692  0.0
0.560542  0.061068  0.0
0.596969  0.07084  0.0
0.606316  0.075572  0.0
0.588672  0.075298  0.0
0.597317  0.073908  0.0
0.615653  0.080296  0.0
0.624977  0.085011  0.0
0.6074  0.084761  0.0
0.616008  0.08336  0.0
0.580428  0.07973  0.0
0.589821  0.08447  0.0
0.57224  0.084134  0.0
0.580827  0.082783  0.0
0.598419  0.083093  0.0
0.589045  0.078359  0.0
0.606668  0.078638  0.0
0.598042  0.080034  0.0
0.526252  0.069427  0.0
0.535721  0.074202  0.0
0.518065  0.073727  0.0
0.526676  0.072457  0.0
0.545191  0.078976  0.0
0.554655  0.083747  0.0
0.537067  0.083303  0.0
0.545635  0.082014  0.0
0.509941  0.077993  0.0
0.519477  0.082798  0.0
0.501884  0.082224  0.0
0.510431  0.081011  0.0
0.528034  0.081545  0.0
0.518521  0.076751  0.0
0.536157  0.077237  0.0
0.527568  0.078516  0.0
0.563233  0.082425  0.0
0.553789  0.077663  0.0
0.571419  0.078035  0.0
0.562811  0.079379  0.0
0.544341  0.072897  0.0
0.534893  0.06813  0.0
0.552585  0.068525  0.0
0.543936  0.069855  0.0
0.579661  0.073617  0.0
0.570273  0.068871  0.0
0.587959  0.069171  0.0
0.579295  0.070557  0.0
0.561617  0.07023  0.0
0.571025  0.074982  0.0
0.553375  0.074618  0.0
0.562003  0.073281  0.0
0.417497  0.048054  0.0
0.42694  0.052751  0.0
0.40922  0.051968  0.0
0.417878  0.05093  0.0
0.436426  0.057492  0.0
0.44595  0.062267  0.0
0.428248  0.061478  0.0
0.436868  0.060418  0.0
0.401009  0.055825  0.0
0.410553  0.060599  0.0
0.392869  0.059623  0.0
0.40147  0.058689  0.0
0.419164  0.059599  0.0
0.40964  0.054838  0.0
0.427353  0.055654  0.0
0.418712  0.056702  0.0
0.455505  0.06707  0.0
0.465085  0.071894  0.0
0.447424  0.071123  0.0
0.455999  0.070035  0.0
0.474682  0.07673  0.0
0.484288  0.081574  0.0
0.466689  0.080841  0.0
0.475215  0.079722  0.0
0.439416  0.075132  0.0
0.449088  0.080018  0.0
0.431485  0.079095  0.0
0.439991  0.078089  0.0
0.457604  0.078953  0.0
0.447958  0.074084  0.0
0.465601  0.074874  0.0
0.457049  0.075977  0.0
0.384801  0.063362  0.0
0.394454  0.068229  0.0
0.376808  0.067042  0.0
0.385347  0.066219  0.0
0.40415  0.073133  0.0
0.413881  0.078064  0.0
0.396276  0.076916  0.0
0.404763  0.076047  0.0
0.368896  0.070664  0.0
0.378671  0.075641  0.0
0.361069  0.074228  0.0
0.369538  0.07352  0.0
0.387149  0.074849  0.0
0.377401  0.069898  0.0
0.395035  0.071116  0.0
0.386521  0.071962  0.0
0.422377  0.077124  0.0
0.412674  0.072214  0.0
0.430315  0.073201  0.0
0.421783  0.074187  0.0
0.403002  0.067331  0.0
0.393371  0.062482  0.0
0.411047  0.063492  0.0
0.402466  0.064441  0.0
0.43833  0.069231  0.0
0.42873  0.0644  0.0
0.44642  0.065215  0.0
0.437821  0.066288  0.0
0.42014  0.065414  0.0
0.429764  0.070261  0.0
0.412107  0.069299  0.0
0.420664  0.068332  0.0
0.492824  0.080406  0.0
0.483243  0.075576  0.0
0.500883  0.0762  0.0
0.492313  0.0774  0.0
0.47367  0.070754  0.0
0.464113  0.065943  0.0
0.481808  0.066593  0.0
0.473192  0.067769  0.0
0.509009  0.071958  0.0
0.499504  0.06717  0.0
0.517199  0.06768  0.0
0.508566  0.068941  0.0
0.490879  0.06839  0.0
0.500406  0.073189  0.0
0.482746  0.07258  0.0
0.49134  0.071392  0.0
0.454579  0.061152  0.0
0.445076  0.056388  0.0
0.462807  0.057044  0.0
0.454148  0.058199  0.0
0.435609  0.051656  0.0
0.426183  0.046965  0.0
0.44393  0.047606  0.0
0.435234  0.048747  0.0
0.4711  0.052891  0.0
0.461688  0.048181  0.0
0.479456  0.048694  0.0
0.470742  0.049926  0.0
0.452983  0.049369  0.0
0.462413  0.054086  0.0
0.444672  0.053455  0.0
0.45335  0.052308  0.0
0.525452  0.063367  0.0
0.516024  0.058613  0.0
0.533766  0.059021  0.0
0.525077  0.060338  0.0
0.506615  0.053873  0.0
0.497229  0.049151  0.0
0.515007  0.049556  0.0
0.506279  0.050863  0.0
0.542138  0.054641  0.0
0.532786  0.049914  0.0
0.550566  0.050229  0.0
0.541826  0.051598  0.0
0.524052  0.051254  0.0
0.533422  0.055984  0.0
0.515667  0.055593  0.0
0.524376  0.054281  0.0
0.488508  0.050422  0.0
0.497913  0.055149  0.0
0.480161  0.054648  0.0
0.488856  0.053411  0.0
0.507342  0.059896  0.0
0.516791  0.064657  0.0
0.499079  0.064162  0.0
0.507733  0.06291  0.0
0.471876  0.058832  0.0
0.481367  0.063602  0.0
0.463657  0.062973  0.0
0.472295  0.061808  0.0
0.490013  0.062392  0.0
0.480543  0.05763  0.0
0.498283  0.058152  0.0
0.489608  0.059396  0.0
0.205398  0.005512  0.0
0.196912  0.00265  0.0
0.213824  0.002824  0.0
0.205365  0.003661  0.0
0.188489  -2.9e-05  0.0
0.180123  -0.002525  0.0
0.196913  -0.002711  0.0
0.188495  -0.001756  0.0
0.222307  -3.3e-05  0.0
0.213824  -0.002888  0.0
0.230849  -0.003056  0.0
0.222314  -0.001994  0.0
0.205346  -0.001878  0.0
0.21381  0.000919  0.0
0.1969  0.000862  0.0
0.205339  -3.1e-05  0.0
0.171813  -0.004834  0.0
0.163554  -0.006954  0.0
0.180226  -0.007534  0.0
0.17185  -0.006442  0.0
0.155344  -0.008882  0.0
0.147179  -0.010615  0.0
0.163739  -0.011624  0.0
0.155406  -0.010375  0.0
0.188708  -0.010429  0.0
0.180436  -0.012591  0.0
0.197262  -0.013515  0.0
0.188789  -0.012181  0.0
0.172031  -0.011298  0.0
0.180284  -0.009214  0.0
0.163605  -0.008504  0.0
0.171959  -0.009672  0.0
0.239455  -0.006242  0.0
0.230987  -0.009116  0.0
0.248127  -0.009587  0.0
0.239511  -0.008317  0.0
0.222572  -0.011834  0.0
0.214208  -0.014394  0.0
0.231266  -0.015224  0.0
0.222669  -0.01382  0.0
0.256868  -0.013088  0.0
0.248426  -0.016007  0.0
0.26568  -0.016741  0.0
0.256979  -0.015281  0.0
0.239775  -0.014573  0.0
0.248209  -0.011721  0.0
0.231064  -0.011146  0.0
0.23967  -0.012481  0.0
0.205671  -0.013022  0.0
0.214022  -0.010536  0.0
0.197093  -0.009891  0.0
0.205582  -0.01115  0.0
0.222424  -0.007886  0.0
0.23088  -0.005074  0.0
0.213853  -0.004795  0.0
0.222373  -0.005918  0.0
0.188586  -0.006947  0.0
0.196939  -0.004501  0.0
0.180146  -0.004192  0.0
0.188543  -0.005213  0.0
0.205399  -0.005575  0.0
0.197028  -0.008089  0.0
0.213951  -0.008617  0.0
0.205446  -0.007429  0.0
0.139058  -0.012151  0.0
0.130977  -0.013485  0.0
0.14743  -0.014955  0.0
0.13914  -0.013532  0.0
0.122935  -0.014614  0.0
0.114929  -0.015534  0.0
0.131279  -0.017502  0.0
0.123032  -0.015886  0.0
0.155887  -0.017983  0.0
0.147784  -0.019404  0.0
0.164435  -0.021233  0.0
0.15602  -0.019543  0.0
0.139451  -0.017747  0.0
0.147536  -0.016425  0.0
0.131067  -0.014812  0.0
0.139336  -0.016329  0.0
0.106958  -0.01624  0.0
0.099018  -0.016727  0.0
0.11527  -0.019227  0.0
0.107065  -0.0174  0.0
0.09111  -0.016988  0.0
0.08323  -0.017016  0.0
0.099387  -0.020089  0.0
0.091224  -0.018033  0.0
0.12369  -0.022475  0.0
0.115724  -0.023084  0.0
0.132229  -0.025985  0.0
0.123863  -0.023851  0.0
0.107457  -0.020983  0.0
0.115408  -0.020493  0.0
0.09913  -0.01783  0.0
0.107314  -0.019769  0.0
0.173081  -0.024703  0.0
0.16498  -0.026245  0.0
0.181833  -0.028391  0.0
0.173283  -0.026451  0.0
0.156917  -0.027605  0.0
0.14889  -0.028778  0.0
0.165695  -0.031451  0.0
0.157151  -0.029283  0.0
0.190699  -0.032293  0.0
0.182631  -0.033995  0.0
0.199684  -0.036404  0.0
0.190989  -0.034236  0.0
0.174008  -0.031823  0.0
0.182077  -0.030236  0.0
0.165198  -0.027957  0.0
0.173745  -0.030008  0.0
0.140432  -0.026622  0.0
0.148453  -0.025568  0.0
0.131852  -0.023077  0.0
0.140228  -0.02509  0.0
0.156508  -0.024321  0.0
0.1646  -0.022885  0.0
0.147929  -0.020917  0.0
0.15633  -0.022709  0.0
0.123389  -0.019787  0.0
0.131403  -0.018869  0.0
0.115032  -0.01675  0.0
0.123258  -0.01847  0.0
0.139719  -0.020629  0.0
0.131688  -0.021654  0.0
0.148262  -0.023997  0.0
0.139873  -0.022097  0.0
0.274567  -0.02054  0.0
0.266168  -0.023527  0.0
0.283531  -0.02448  0.0
0.274744  -0.022853  0.0
0.257821  -0.026385  0.0
0.249525  -0.029112  0.0
0.266841  -0.030418  0.0
0.25805  -0.028643  0.0
0.292573  -0.028556  0.0
0.284234  -0.031634  0.0
0.301695  -0.03276  0.0
0.292823  -0.030988  0.0
0.2754  -0.029859  0.0
0.283743  -0.026853  0.0
0.266371  -0.025811  0.0
0.275159  -0.02751  0.0
0.24128  -0.031707  0.0
0.233084  -0.034166  0.0
0.250362  -0.035863  0.0
0.241563  -0.033918  0.0
0.224939  -0.036489  0.0
0.216842  -0.038673  0.0
0.234094  -0.040801  0.0
0.225278  -0.038661  0.0
0.259545  -0.040175  0.0
0.251427  -0.042788  0.0
0.268831  -0.044635  0.0
0.259922  -0.04254  0.0
0.242561  -0.040669  0.0
0.25069  -0.038151  0.0
0.233395  -0.036357  0.0
0.242202  -0.038396  0.0
0.310897  -0.037086  0.0
0.302637  -0.040273  0.0
0.32018  -0.041525  0.0
0.311228  -0.039634  0.0
0.294436  -0.04336  0.0
0.286297  -0.046346  0.0
0.303815  -0.047925  0.0
0.294839  -0.045884  0.0
0.329542  -0.046068  0.0
0.321379  -0.049376  0.0
0.338981  -0.050706  0.0
0.329958  -0.048724  0.0
0.312377  -0.047364  0.0
0.320553  -0.044128  0.0
0.303003  -0.042807  0.0
0.311966  -0.044771  0.0
0.277351  -0.044277  0.0
0.285503  -0.041374  0.0
0.268063  -0.039823  0.0
0.27696  -0.041829  0.0
0.293715  -0.038365  0.0
0.301984  -0.035251  0.0
0.284514  -0.034046  0.0
0.293393  -0.03589  0.0
0.258874  -0.035509  0.0
0.26711  -0.032745  0.0
0.249781  -0.031346  0.0
0.258575  -0.033203  0.0
0.275949  -0.034597  0.0
0.26772  -0.037445  0.0
0.285148  -0.038914  0.0
0.276261  -0.036991  0.0
0.208083  -0.036517  0.0
0.216187  -0.034439  0.0
0.199077  -0.032398  0.0
0.207767  -0.034454  0.0
0.224338  -0.032215  0.0
0.232536  -0.029848  0.0
0.215386  -0.028252  0.0
0.224072  -0.030108  0.0
0.190187  -0.028479  0.0
0.198339  -0.026557  0.0
0.181407  -0.024767  0.0
0.189963  -0.026603  0.0
0.206963  -0.028406  0.0
0.198809  -0.030429  0.0
0.215897  -0.032355  0.0
0.207209  -0.030402  0.0
0.240783  -0.027341  0.0
0.249079  -0.024694  0.0
0.231877  -0.0235  0.0
0.240567  -0.02518  0.0
0.257426  -0.021911  0.0
0.265823  -0.018994  0.0
0.248561  -0.018163  0.0
0.257258  -0.019691  0.0
0.223059  -0.01983  0.0
0.231392  -0.017277  0.0
0.214325  -0.016336  0.0
0.222912  -0.017816  0.0
0.240036  -0.018783  0.0
0.231697  -0.021413  0.0
0.248887  -0.022505  0.0
0.240194  -0.020904  0.0
0.17273  -0.021266  0.0
0.1809  -0.019466  0.0
0.16415  -0.017978  0.0
0.172579  -0.019571  0.0
0.189112  -0.01749  0.0
0.197368  -0.015341  0.0
0.180532  -0.014294  0.0
0.18899  -0.015709  0.0
0.155659  -0.014907  0.0
0.163824  -0.013197  0.0
0.147252  -0.012053  0.0
0.155564  -0.013386  0.0
0.172211  -0.014573  0.0
0.164028  -0.016372  0.0
0.180763  -0.017729  0.0
0.17232  -0.016227  0.0
0.205894  -0.016791  0.0
0.197625  -0.019024  0.0
0.214607  -0.020252  0.0
0.206028  -0.018692  0.0
0.189402  -0.021089  0.0
0.181221  -0.022983  0.0
0.198134  -0.024649  0.0
0.189571  -0.022911  0.0
0.223406  -0.023895  0.0
0.215162  -0.026227  0.0
0.232295  -0.027715  0.0
0.223608  -0.02595  0.0
0.206534  -0.024473  0.0
0.214773  -0.02223  0.0
0.197778  -0.020885  0.0
0.206348  -0.022531  0.0
0.075378  -0.016804  0.0
0.067552  -0.016342  0.0
0.083617  -0.020029  0.0
0.075496  -0.017726  0.0
0.059751  -0.015623  0.0
0.05198  -0.014635  0.0
0.067944  -0.018976  0.0
0.059868  -0.01641  0.0
0.091994  -0.023569  0.0
0.084135  -0.023254  0.0
0.100531  -0.027433  0.0
0.092199  -0.024755  0.0
0.075927  -0.020621  0.0
0.083773  -0.021078  0.0
0.067669  -0.017199  0.0
0.075769  -0.019632  0.0
0.04424  -0.013369  0.0
0.036487  -0.011799  0.0
0.052354  -0.016837  0.0
0.044342  -0.014  0.0
0.028945  -0.009995  0.0
0.02177  -0.007999  0.0
0.036941  -0.01354  0.0
0.029134  -0.010482  0.0
0.060678  -0.02071  0.0
0.052896  -0.019281  0.0
0.069227  -0.025009  0.0
0.060904  -0.021665  0.0
0.044764  -0.016039  0.0
0.052512  -0.017621  0.0
0.036593  -0.012349  0.0
0.044606  -0.015334  0.0
0.10925  -0.031628  0.0
0.101412  -0.031541  0.0
0.118175  -0.03616  0.0
0.109589  -0.033115  0.0
0.093601  -0.03121  0.0
0.085814  -0.030621  0.0
0.102619  -0.036057  0.0
0.093984  -0.032635  0.0
0.127332  -0.041026  0.0
0.119607  -0.041269  0.0
0.136746  -0.046221  0.0
0.127871  -0.042849  0.0
0.110843  -0.037858  0.0
0.118605  -0.037811  0.0
0.101772  -0.032997  0.0
0.110379  -0.036223  0.0
0.077327  -0.02722  0.0
0.085129  -0.027999  0.0
0.068699  -0.022857  0.0
0.077024  -0.026023  0.0
0.092951  -0.028509  0.0
0.100796  -0.028765  0.0
0.084346  -0.024387  0.0
0.092674  -0.02722  0.0
0.0603  -0.018907  0.0
0.068104  -0.019902  0.0
0.052094  -0.015348  0.0
0.060142  -0.018049  0.0
0.076297  -0.022681  0.0
0.068478  -0.021838  0.0
0.084839  -0.026754  0.0
0.076514  -0.023759  0.0
0.015253  -0.005942  0.0
0.021287  -0.008801  0.0
0.014646  -0.005914  0.0
0.004273  -0.0018  0.0
0.00318  -0.001426  0.0
0.008292  -0.003987  0.0
0.008219  -0.003802  0.0
0.029742  -0.013053  0.0
0.022489  -0.010448  0.0
0.038222  -0.017752  0.0
0.03006  -0.013709  0.0
0.015591  -0.0071  0.0
0.021406  -0.009216  0.0
0.007454  -0.003226  0.0
0.014826  -0.006524  0.0
0.004487  -0.002363  0.0
0.003391  -0.001894  0.0
0.009143  -0.005476  0.0
0.00889  -0.005132  0.0
0.047139  -0.023141  0.0
0.039359  -0.020517  0.0
0.056751  -0.029356  0.0
0.047702  -0.024335  0.0
0.031763  -0.01756  0.0
0.024449  -0.014274  0.0
0.041788  -0.024428  0.0
0.032521  -0.018682  0.0
0.067221  -0.036438  0.0
0.060114  -0.034671  0.0
0.078704  -0.044318  0.0
0.068615  -0.038502  0.0
0.050286  -0.028732  0.0
0.057663  -0.030965  0.0
0.039974  -0.021663  0.0
0.04923  -0.02709  0.0
0.016777  -0.009565  0.0
0.022681  -0.012276  0.0
0.007879  -0.004257  0.0
0.015766  -0.00869  0.0
0.030809  -0.015759  0.0
0.038567  -0.018616  0.0
0.022665  -0.010928  0.0
0.030581  -0.015053  0.0
0.007741  -0.003974  0.0
0.003254  -0.001611  0.0
0.01584  -0.007765  0.0
0.022342  -0.011622  0.0
0.015289  -0.007753  0.0
0.146442  -0.051729  0.0
0.138967  -0.052406  0.0
0.156437  -0.057524  0.0
0.147258  -0.053902  0.0
0.131594  -0.052921  0.0
0.124342  -0.053275  0.0
0.142  -0.059237  0.0
0.132617  -0.055165  0.0
0.166738  -0.063569  0.0
0.159676  -0.064747  0.0
0.177341  -0.069817  0.0
0.167895  -0.066066  0.0
0.150249  -0.060832  0.0
0.157417  -0.059865  0.0
0.139877  -0.054609  0.0
0.149147  -0.058447  0.0
0.117236  -0.05347  0.0
0.110315  -0.053511  0.0
0.128267  -0.060441  0.0
0.118571  -0.055834  0.0
0.103631  -0.053408  0.0
0.097263  -0.053173  0.0
0.115662  -0.061211  0.0
0.105474  -0.055969  0.0
0.139826  -0.067677  0.0
0.13387  -0.068486  0.0
0.151869  -0.075064  0.0
0.141823  -0.070447  0.0
0.123732  -0.063561  0.0
0.129925  -0.06303  0.0
0.11187  -0.055962  0.0
0.121784  -0.060874  0.0
0.188229  -0.076215  0.0
0.181722  -0.077884  0.0
0.199366  -0.082702  0.0
0.189752  -0.07896  0.0
0.175512  -0.079481  0.0
0.16967  -0.081009  0.0
0.187301  -0.086395  0.0
0.17747  -0.082329  0.0
0.210698  -0.089219  0.0
0.204783  -0.091277  0.0
0.222155  -0.09571  0.0
0.212525  -0.092099  0.0
0.195062  -0.087452  0.0
0.201056  -0.085531  0.0
0.183443  -0.08068  0.0
0.193161  -0.084584  0.0
0.159729  -0.076681  0.0
0.165719  -0.075344  0.0
0.147879  -0.069476  0.0
0.157736  -0.073863  0.0
0.172061  -0.073936  0.0
0.178683  -0.072451  0.0
0.160983  -0.067296  0.0
0.170543  -0.071248  0.0
0.136455  -0.062405  0.0
0.143248  -0.061676  0.0
0.125503  -0.055571  0.0
0.135026  -0.059899  0.0
0.152804  -0.065819  0.0
0.146167  -0.066792  0.0
0.163988  -0.072594  0.0
0.154292  -0.06843  0.0
0.087077  -0.047619  0.0
0.093754  -0.048247  0.0
0.075645  -0.039889  0.0
0.085412  -0.045254  0.0
0.100675  -0.048702  0.0
0.107781  -0.048975  0.0
0.090136  -0.0419  0.0
0.099477  -0.046529  0.0
0.065127  -0.03285  0.0
0.072638  -0.034398  0.0
0.055384  -0.026569  0.0
0.064323  -0.031257  0.0
0.08181  -0.039101  0.0
0.074463  -0.03791  0.0
0.092355  -0.045992  0.0
0.08283  -0.04102  0.0
0.115032  -0.049062  0.0
0.122399  -0.048964  0.0
0.105023  -0.042943  0.0
0.114111  -0.046994  0.0
0.129865  -0.048682  0.0
0.137414  -0.04822  0.0
0.120196  -0.04309  0.0
0.129127  -0.046669  0.0
0.095436  -0.037255  0.0
0.10312  -0.037677  0.0
0.086222  -0.032015  0.0
0.094893  -0.035648  0.0
0.111932  -0.0413  0.0
0.104309  -0.041109  0.0
0.121579  -0.046929  0.0
0.112578  -0.043125  0.0
0.046262  -0.021032  0.0
0.054003  -0.02308  0.0
0.037554  -0.016142  0.0
0.045911  -0.020077  0.0
0.061768  -0.024782  0.0
0.069542  -0.026155  0.0
0.05312  -0.020163  0.0
0.061443  -0.023693  0.0
0.02941  -0.011926  0.0
0.037093  -0.014156  0.0
0.021865  -0.008355  0.0
0.029381  -0.011452  0.0
0.045141  -0.017537  0.0
0.037341  -0.01543  0.0
0.053664  -0.022053  0.0
0.04536  -0.018338  0.0
0.078049  -0.029759  0.0
0.070302  -0.028604  0.0
0.087201  -0.034982  0.0
0.078484  -0.03112  0.0
0.062572  -0.027135  0.0
0.054852  -0.025324  0.0
0.071917  -0.032809  0.0
0.06307  -0.028423  0.0
0.096743  -0.040687  0.0
0.089241  -0.040022  0.0
0.106738  -0.046862  0.0
0.097538  -0.042538  0.0
0.080194  -0.035634  0.0
0.087794  -0.03658  0.0
0.070767  -0.02993  0.0
0.079543  -0.034043  0.0
0.348493  -0.055429  0.0
0.340444  -0.058865  0.0
0.358075  -0.060225  0.0
0.348996  -0.058181  0.0
0.33247  -0.062229  0.0
0.324575  -0.065521  0.0
0.342178  -0.067158  0.0
0.333065  -0.064978  0.0
0.36772  -0.065085  0.0
0.359795  -0.068647  0.0
0.377422  -0.069996  0.0
0.368305  -0.067918  0.0
0.350679  -0.066519  0.0
0.358619  -0.06302  0.0
0.340991  -0.061615  0.0
0.350087  -0.063725  0.0
0.316764  -0.068742  0.0
0.309045  -0.071893  0.0
0.32662  -0.073828  0.0
0.317467  -0.071499  0.0
0.301423  -0.074975  0.0
0.293907  -0.077988  0.0
0.311452  -0.080241  0.0
0.302251  -0.077748  0.0
0.336546  -0.078968  0.0
0.328993  -0.082289  0.0
0.346528  -0.084146  0.0
0.337347  -0.081813  0.0
0.319801  -0.079878  0.0
0.327374  -0.076633  0.0
0.309807  -0.074657  0.0
0.318984  -0.077066  0.0
0.387171  -0.074948  0.0
0.379373  -0.078627  0.0
0.396958  -0.079929  0.0
0.387827  -0.077844  0.0
0.371666  -0.082253  0.0
0.364056  -0.085826  0.0
0.381578  -0.087343  0.0
0.372427  -0.085152  0.0
0.406773  -0.084929  0.0
0.399094  -0.08871  0.0
0.416603  -0.089938  0.0
0.407484  -0.087869  0.0
0.389958  -0.086582  0.0
0.397645  -0.082849  0.0
0.38008  -0.081524  0.0
0.389221  -0.083661  0.0
0.35489  -0.083566  0.0
0.362512  -0.080054  0.0
0.344943  -0.078427  0.0
0.354107  -0.080693  0.0
0.370233  -0.076486  0.0
0.378044  -0.072863  0.0
0.360429  -0.07148  0.0
0.36956  -0.073618  0.0
0.33505  -0.073325  0.0
0.34282  -0.069954  0.0
0.325222  -0.068273  0.0
0.334354  -0.070526  0.0
0.351954  -0.072148  0.0
0.344202  -0.075588  0.0
0.361787  -0.077184  0.0
0.352639  -0.074983  0.0
0.28651  -0.080935  0.0
0.279242  -0.083816  0.0
0.296747  -0.086402  0.0
0.287489  -0.083733  0.0
0.272119  -0.086632  0.0
0.265159  -0.089384  0.0
0.282605  -0.092318  0.0
0.273283  -0.089463  0.0
0.307052  -0.091897  0.0
0.300018  -0.094981  0.0
0.3174  -0.097396  0.0
0.308148  -0.094775  0.0
0.29073  -0.092248  0.0
0.297789  -0.089246  0.0
0.280309  -0.08663  0.0
0.289598  -0.089391  0.0
0.258383  -0.092072  0.0
0.251817  -0.094695  0.0
0.269167  -0.097984  0.0
0.259777  -0.094939  0.0
0.245491  -0.097251  0.0
0.239434  -0.099733  0.0
0.256623  -0.103382  0.0
0.24717  -0.100149  0.0
0.279986  -0.103864  0.0
0.273743  -0.106689  0.0
0.290799  -0.109687  0.0
0.281502  -0.106771  0.0
0.264366  -0.103622  0.0
0.27063  -0.100879  0.0
0.253347  -0.09758  0.0
0.26277  -0.100719  0.0
0.327765  -0.102882  0.0
0.320932  -0.106122  0.0
0.338119  -0.108338  0.0
0.328932  -0.105799  0.0
0.314271  -0.109298  0.0
0.307795  -0.1124  0.0
0.324768  -0.114862  0.0
0.315603  -0.112207  0.0
0.348429  -0.11375  0.0
0.341721  -0.117092  0.0
0.358663  -0.119106  0.0
0.349599  -0.116667  0.0
0.332615  -0.11455  0.0
0.339298  -0.11126  0.0
0.322182  -0.109038  0.0
0.331362  -0.111636  0.0
0.298574  -0.109624  0.0
0.305038  -0.106582  0.0
0.287858  -0.103871  0.0
0.297149  -0.106715  0.0
0.3117  -0.103472  0.0
0.318538  -0.100299  0.0
0.301204  -0.097869  0.0
0.310473  -0.100565  0.0
0.277129  -0.098066  0.0
0.283837  -0.095188  0.0
0.266432  -0.092233  0.0
0.275788  -0.095183  0.0
0.293149  -0.098006  0.0
0.286464  -0.100968  0.0
0.303717  -0.103673  0.0
0.294434  -0.100902  0.0
0.426436  -0.094946  0.0
0.418857  -0.098808  0.0
0.436259  -0.099944  0.0
0.42718  -0.09791  0.0
0.411375  -0.102624  0.0
0.403995  -0.106392  0.0
0.421275  -0.107688  0.0
0.412211  -0.10558  0.0
0.446058  -0.104927  0.0
0.438549  -0.108849  0.0
0.45582  -0.109886  0.0
0.446806  -0.107898  0.0
0.429511  -0.106803  0.0
0.437009  -0.102914  0.0
0.419647  -0.101768  0.0
0.42872  -0.10384  0.0
0.396722  -0.110109  0.0
0.389562  -0.113773  0.0
0.406687  -0.115236  0.0
0.397654  -0.113054  0.0
0.382522  -0.11738  0.0
0.375607  -0.120925  0.0
0.392539  -0.122563  0.0
0.383555  -0.120306  0.0
0.416586  -0.120322  0.0
0.409472  -0.124037  0.0
0.426403  -0.12536  0.0
0.417488  -0.123253  0.0
0.400518  -0.121858  0.0
0.407607  -0.118177  0.0
0.390543  -0.116709  0.0
0.399555  -0.11893  0.0
0.465531  -0.114818  0.0
0.458051  -0.118779  0.0
0.475177  -0.119717  0.0
0.466252  -0.117782  0.0
0.450649  -0.12269  0.0
0.443328  -0.126546  0.0
0.460273  -0.127611  0.0
0.451415  -0.125627  0.0
0.484746  -0.124583  0.0
0.477238  -0.128564  0.0
0.494223  -0.129412  0.0
0.485401  -0.12753  0.0
0.468403  -0.126634  0.0
0.475872  -0.122674  0.0
0.458797  -0.121731  0.0
0.467692  -0.123691  0.0
0.434448  -0.124506  0.0
0.44173  -0.120675  0.0
0.424668  -0.119494  0.0
0.433616  -0.121571  0.0
0.449102  -0.11679  0.0
0.456559  -0.112855  0.0
0.439335  -0.111812  0.0
0.448331  -0.11383  0.0
0.414806  -0.114438  0.0
0.422109  -0.110646  0.0
0.404878  -0.109343  0.0
0.413929  -0.111488  0.0
0.431131  -0.112724  0.0
0.423808  -0.11655  0.0
0.440929  -0.117727  0.0
0.431954  -0.115679  0.0
0.366582  -0.118581  0.0
0.373474  -0.115078  0.0
0.356393  -0.113267  0.0
0.365481  -0.115659  0.0
0.380495  -0.111513  0.0
0.38764  -0.107891  0.0
0.370391  -0.106276  0.0
0.379505  -0.108575  0.0
0.346139  -0.107902  0.0
0.353127  -0.104484  0.0
0.335844  -0.102497  0.0
0.345031  -0.104978  0.0
0.362277  -0.106869  0.0
0.355282  -0.11034  0.0
0.372428  -0.112147  0.0
0.363324  -0.109801  0.0
0.394903  -0.104215  0.0
0.402278  -0.100489  0.0
0.384899  -0.099064  0.0
0.394022  -0.101268  0.0
0.409756  -0.096714  0.0
0.417334  -0.092892  0.0
0.399855  -0.091649  0.0
0.408977  -0.093762  0.0
0.374884  -0.093898  0.0
0.382369  -0.090265  0.0
0.364875  -0.088728  0.0
0.374036  -0.090975  0.0
0.391511  -0.092442  0.0
0.38403  -0.096126  0.0
0.401448  -0.097539  0.0
0.392325  -0.095381  0.0
0.325539  -0.097065  0.0
0.332686  -0.093774  0.0
0.315248  -0.091621  0.0
0.324482  -0.094169  0.0
0.339967  -0.090427  0.0
0.347372  -0.087024  0.0
0.329859  -0.08514  0.0
0.339058  -0.087543  0.0
0.304996  -0.086184  0.0
0.312338  -0.083062  0.0
0.294807  -0.080773  0.0
0.304036  -0.083353  0.0
0.321552  -0.08555  0.0
0.314235  -0.088753  0.0
0.331706  -0.090884  0.0
0.322489  -0.08841  0.0
0.356552  -0.089346  0.0
0.349161  -0.092813  0.0
0.366602  -0.094555  0.0
0.357432  -0.092251  0.0
0.341892  -0.096225  0.0
0.334756  -0.099582  0.0
0.35209  -0.101558  0.0
0.342906  -0.099137  0.0
0.376659  -0.09976  0.0
0.369405  -0.103341  0.0
0.386706  -0.104948  0.0
0.377585  -0.102696  0.0
0.360254  -0.101009  0.0
0.367509  -0.097479  0.0
0.350105  -0.095721  0.0
0.359283  -0.098083  0.0
0.229895  -0.09632  0.0
0.235997  -0.093944  0.0
0.21857  -0.089939  0.0
0.228137  -0.093429  0.0
0.242371  -0.091495  0.0
0.248983  -0.08898  0.0
0.231486  -0.085403  0.0
0.24093  -0.088648  0.0
0.207364  -0.083538  0.0
0.213938  -0.081475  0.0
0.196336  -0.077168  0.0
0.205856  -0.080749  0.0
0.223422  -0.084883  0.0
0.216925  -0.087086  0.0
0.234406  -0.091073  0.0
0.224902  -0.087705  0.0
0.255803  -0.086399  0.0
0.262804  -0.083752  0.0
0.245277  -0.080594  0.0
0.254613  -0.083599  0.0
0.269966  -0.081039  0.0
0.27727  -0.078258  0.0
0.259727  -0.075501  0.0
0.268974  -0.07828  0.0
0.234883  -0.07485  0.0
0.242184  -0.072487  0.0
0.224645  -0.069198  0.0
0.233886  -0.072192  0.0
0.251431  -0.075371  0.0
0.24418  -0.077858  0.0
0.261719  -0.080974  0.0
0.25243  -0.078084  0.0
0.185534  -0.070882  0.0
0.192575  -0.069223  0.0
0.17499  -0.064733  0.0
0.18434  -0.068295  0.0
0.199778  -0.067471  0.0
0.207118  -0.065621  0.0
0.189615  -0.061742  0.0
0.198815  -0.064957  0.0
0.164724  -0.058773  0.0
0.17215  -0.057551  0.0
0.154742  -0.053043  0.0
0.163845  -0.056465  0.0
0.18131  -0.060873  0.0
0.173957  -0.062279  0.0
0.191506  -0.066676  0.0
0.182238  -0.063293  0.0
0.216344  -0.068725  0.0
0.209067  -0.070728  0.0
0.226628  -0.074449  0.0
0.21733  -0.071318  0.0
0.201938  -0.072641  0.0
0.194982  -0.074468  0.0
0.212586  -0.078725  0.0
0.20315  -0.075299  0.0
0.237079  -0.080271  0.0
0.230151  -0.082612  0.0
0.247675  -0.086157  0.0
0.238287  -0.083033  0.0
0.220736  -0.079341  0.0
0.227727  -0.077134  0.0
0.210158  -0.07335  0.0
0.21952  -0.076626  0.0
0.2847  -0.075408  0.0
0.292245  -0.072487  0.0
0.274691  -0.07011  0.0
0.283866  -0.072679  0.0
0.299893  -0.069494  0.0
0.307637  -0.066427  0.0
0.290071  -0.064406  0.0
0.299189  -0.066785  0.0
0.264794  -0.064901  0.0
0.272529  -0.0622  0.0
0.255018  -0.059799  0.0
0.264099  -0.062309  0.0
0.281632  -0.064644  0.0
0.273926  -0.067446  0.0
0.291478  -0.069769  0.0
0.282334  -0.067298  0.0
0.315469  -0.063287  0.0
0.323383  -0.060071  0.0
0.3058  -0.05838  0.0
0.314873  -0.060586  0.0
0.331375  -0.056779  0.0
0.33944  -0.053412  0.0
0.321835  -0.052025  0.0
0.330873  -0.054078  0.0
0.296222  -0.053568  0.0
0.304266  -0.050511  0.0
0.286738  -0.048863  0.0
0.29573  -0.050986  0.0
0.313283  -0.052599  0.0
0.305256  -0.055737  0.0
0.322836  -0.057371  0.0
0.313782  -0.055244  0.0
0.24537  -0.054825  0.0
0.253266  -0.052349  0.0
0.235852  -0.049996  0.0
0.244814  -0.052397  0.0
0.26123  -0.049765  0.0
0.269259  -0.047075  0.0
0.251839  -0.045142  0.0
0.260762  -0.047333  0.0
0.226467  -0.045326  0.0
0.234486  -0.043061  0.0
0.217212  -0.040829  0.0
0.22604  -0.043077  0.0
0.243365  -0.045282  0.0
0.235363  -0.047655  0.0
0.252756  -0.04992  0.0
0.243815  -0.047627  0.0
0.27822  -0.049233  0.0
0.270208  -0.052018  0.0
0.287711  -0.053955  0.0
0.278702  -0.051744  0.0
0.262265  -0.054703  0.0
0.254394  -0.057286  0.0
0.271892  -0.059616  0.0
0.262838  -0.057212  0.0
0.297302  -0.05879  0.0
0.289426  -0.061759  0.0
0.306989  -0.063724  0.0
0.297895  -0.061434  0.0
0.280349  -0.059412  0.0
0.288248  -0.056535  0.0
0.270734  -0.054526  0.0
0.279764  -0.056831  0.0
0.145038  -0.04758  0.0
0.152728  -0.046767  0.0
0.135599  -0.042409  0.0
0.14443  -0.04559  0.0
0.160479  -0.045784  0.0
0.168286  -0.044635  0.0
0.151201  -0.040956  0.0
0.159967  -0.043796  0.0
0.126405  -0.037546  0.0
0.134244  -0.037073  0.0
0.117435  -0.033002  0.0
0.126005  -0.035876  0.0
0.142918  -0.039938  0.0
0.135102  -0.04058  0.0
0.152171  -0.04478  0.0
0.143376  -0.041775  0.0
0.176147  -0.043324  0.0
0.184058  -0.041853  0.0
0.166986  -0.038778  0.0
0.175711  -0.041323  0.0
0.192018  -0.040227  0.0
0.200027  -0.038447  0.0
0.182945  -0.035915  0.0
0.191647  -0.0382  0.0
0.157987  -0.034475  0.0
0.165978  -0.033238  0.0
0.14914  -0.030422  0.0
0.157684  -0.032714  0.0
0.174605  -0.035531  0.0
0.16662  -0.036898  0.0
0.183656  -0.039841  0.0
0.174944  -0.03743  0.0
0.108666  -0.028779  0.0
0.116563  -0.028563  0.0
0.100075  -0.024875  0.0
0.108414  -0.027406  0.0
0.124489  -0.028126  0.0
0.132444  -0.027477  0.0
0.115906  -0.024414  0.0
0.124261  -0.026674  0.0
0.091641  -0.021284  0.0
0.099536  -0.02125  0.0
0.083347  -0.018001  0.0
0.091489  -0.020178  0.0
0.107787  -0.023475  0.0
0.099878  -0.023639  0.0
0.116323  -0.02715  0.0
0.107977  -0.024758  0.0
0.140898  -0.029758  0.0
0.132939  -0.030541  0.0
0.149709  -0.033795  0.0
0.141164  -0.03137  0.0
0.125012  -0.031119  0.0
0.117116  -0.031484  0.0
0.133871  -0.035382  0.0
0.125313  -0.032668  0.0
0.158678  -0.038092  0.0
0.150777  -0.039107  0.0
0.167814  -0.042642  0.0
0.159071  -0.039955  0.0
0.14212  -0.036399  0.0
0.150035  -0.035531  0.0
0.133222  -0.032121  0.0
0.141772  -0.034686  0.0
0.208796  -0.040716  0.0
0.2008  -0.042616  0.0
0.21804  -0.045221  0.0
0.209197  -0.042859  0.0
0.192856  -0.044372  0.0
0.184966  -0.04598  0.0
0.202214  -0.049113  0.0
0.193329  -0.046497  0.0
0.227421  -0.049908  0.0
0.219544  -0.05204  0.0
0.236941  -0.054763  0.0
0.227955  -0.052247  0.0
0.210603  -0.049472  0.0
0.218505  -0.047463  0.0
0.201236  -0.044749  0.0
0.210098  -0.047234  0.0
0.177132  -0.047438  0.0
0.169357  -0.048744  0.0
0.186639  -0.052464  0.0
0.177691  -0.04956  0.0
0.161646  -0.049897  0.0
0.154005  -0.050892  0.0
0.171357  -0.055269  0.0
0.162315  -0.052032  0.0
0.196343  -0.057704  0.0
0.188777  -0.059349  0.0
0.206246  -0.063133  0.0
0.197105  -0.060076  0.0
0.179678  -0.056198  0.0
0.187296  -0.054714  0.0
0.169968  -0.050871  0.0
0.178958  -0.053936  0.0
0.2466  -0.05977  0.0
0.238889  -0.062155  0.0
0.256394  -0.064911  0.0
0.247281  -0.062291  0.0
0.231269  -0.064441  0.0
0.22375  -0.06663  0.0
0.241276  -0.069851  0.0
0.232084  -0.066988  0.0
0.266317  -0.070167  0.0
0.258815  -0.072808  0.0
0.276361  -0.075516  0.0
0.267152  -0.072844  0.0
0.249611  -0.070042  0.0
0.257152  -0.067514  0.0
0.239633  -0.064687  0.0
0.248783  -0.067425  0.0
0.214578  -0.06367  0.0
0.222143  -0.061617  0.0
0.204693  -0.058295  0.0
0.213785  -0.061204  0.0
0.229802  -0.059459  0.0
0.237547  -0.057195  0.0
0.220125  -0.054381  0.0
0.229141  -0.05702  0.0
0.194994  -0.053098  0.0
0.202765  -0.05135  0.0
0.18548  -0.048101  0.0
0.194393  -0.050857  0.0
0.211735  -0.05405  0.0
0.203999  -0.055938  0.0
0.22142  -0.059166  0.0
0.212369  -0.056396  0.0
0.771368  0.009414  0.0
0.762429  0.004678  0.0
0.780246  0.004682  0.0
0.771346  0.006258  0.0
0.753507  -5.4e-05  0.0
0.744605  -0.004783  0.0
0.762429  -0.004787  0.0
0.753512  -0.003208  0.0
0.789143  -5.4e-05  0.0
0.780246  -0.00479  0.0
0.798057  -0.004793  0.0
0.789147  -0.003213  0.0
0.771333  -0.003211  0.0
0.780238  0.001524  0.0
0.76242  0.001523  0.0
0.771328  -5.4e-05  0.0
0.735726  -0.009505  0.0
0.726872  -0.014221  0.0
0.744696  -0.014237  0.0
0.735762  -0.012655  0.0
0.718044  -0.018928  0.0
0.709247  -0.023625  0.0
0.727064  -0.023657  0.0
0.718116  -0.022071  0.0
0.753681  -0.01897  0.0
0.744875  -0.023683  0.0
0.762678  -0.023704  0.0
0.753743  -0.02212  0.0
0.735933  -0.022098  0.0
0.744746  -0.017387  0.0
0.726925  -0.017367  0.0
0.735866  -0.018951  0.0
0.806985  -0.009533  0.0
0.798127  -0.014268  0.0
0.815925  -0.014274  0.0
0.807011  -0.012692  0.0
0.78929  -0.018997  0.0
0.780476  -0.02372  0.0
0.798266  -0.023733  0.0
0.789343  -0.022151  0.0
0.824874  -0.019013  0.0
0.816051  -0.023743  0.0
0.83383  -0.02375  0.0
0.824917  -0.022169  0.0
0.807133  -0.022161  0.0
0.81596  -0.017431  0.0
0.798166  -0.017424  0.0
0.807085  -0.019006  0.0
0.771546  -0.022137  0.0
0.780366  -0.017414  0.0
0.762559  -0.017402  0.0
0.771489  -0.018985  0.0
0.789209  -0.012686  0.0
0.798073  -0.007952  0.0
0.780264  -0.007947  0.0
0.78918  -0.009529  0.0
0.753585  -0.012668  0.0
0.762448  -0.007942  0.0
0.744625  -0.007935  0.0
0.753551  -0.009515  0.0
0.771369  -0.009523  0.0
0.762513  -0.01425  0.0
0.780323  -0.01426  0.0
0.7714  -0.012678  0.0
0.700481  -0.028311  0.0
0.691748  -0.032984  0.0
0.709552  -0.033036  0.0
0.700591  -0.031445  0.0
0.683052  -0.037643  0.0
0.674393  -0.042287  0.0
0.692175  -0.042365  0.0
0.683204  -0.040767  0.0
0.718633  -0.037762  0.0
0.709952  -0.042431  0.0
0.727722  -0.042485  0.0
0.718767  -0.040894  0.0
0.700989  -0.040836  0.0
0.709675  -0.03617  0.0
0.69188  -0.036113  0.0
0.700846  -0.037708  0.0
0.665774  -0.046914  0.0
0.657196  -0.051523  0.0
0.67495  -0.051634  0.0
0.665971  -0.050026  0.0
0.648661  -0.056114  0.0
0.64017  -0.060684  0.0
0.657888  -0.060832  0.0
0.648904  -0.059213  0.0
0.684129  -0.05635  0.0
0.6756  -0.060957  0.0
0.693307  -0.061062  0.0
0.684343  -0.059459  0.0
0.666626  -0.059347  0.0
0.675156  -0.054745  0.0
0.657416  -0.054629  0.0
0.666397  -0.056242  0.0
0.736814  -0.047204  0.0
0.728177  -0.051866  0.0
0.745907  -0.051918  0.0
0.736964  -0.050331  0.0
0.719574  -0.056515  0.0
0.711009  -0.061148  0.0
0.728706  -0.06122  0.0
0.719762  -0.05963  0.0
0.754998  -0.056624  0.0
0.746398  -0.061277  0.0
0.764084  -0.061323  0.0
0.755159  -0.059743  0.0
0.737463  -0.059693  0.0
0.746064  -0.055041  0.0
0.728345  -0.054988  0.0
0.737289  -0.056576  0.0
0.702055  -0.059553  0.0
0.710621  -0.054922  0.0
0.692892  -0.054841  0.0
0.701854  -0.056441  0.0
0.719225  -0.050275  0.0
0.727864  -0.045615  0.0
0.710105  -0.045558  0.0
0.719063  -0.047151  0.0
0.683728  -0.050125  0.0
0.692339  -0.045488  0.0
0.674567  -0.045405  0.0
0.683543  -0.047008  0.0
0.701306  -0.047086  0.0
0.692698  -0.051726  0.0
0.71044  -0.051803  0.0
0.701479  -0.050207  0.0
0.84279  -0.028484  0.0
0.833997  -0.033206  0.0
0.851752  -0.033213  0.0
0.842845  -0.031635  0.0
0.825227  -0.037922  0.0
0.81648  -0.042629  0.0
0.834215  -0.042641  0.0
0.825306  -0.041065  0.0
0.860713  -0.037938  0.0
0.851945  -0.04265  0.0
0.869671  -0.042655  0.0
0.860776  -0.041082  0.0
0.843043  -0.041075  0.0
0.851811  -0.036361  0.0
0.834064  -0.036354  0.0
0.842972  -0.037931  0.0
0.80776  -0.047327  0.0
0.799066  -0.052016  0.0
0.816776  -0.052035  0.0
0.807866  -0.050461  0.0
0.790401  -0.056693  0.0
0.781766  -0.061359  0.0
0.799444  -0.061387  0.0
0.790536  -0.059815  0.0
0.825785  -0.056734  0.0
0.817117  -0.061408  0.0
0.834786  -0.061423  0.0
0.825896  -0.059856  0.0
0.808218  -0.059839  0.0
0.816885  -0.055163  0.0
0.799187  -0.055143  0.0
0.808096  -0.056716  0.0
0.878624  -0.047366  0.0
0.869877  -0.052065  0.0
0.88757  -0.052069  0.0
0.87869  -0.050501  0.0
0.861153  -0.056755  0.0
0.852452  -0.061434  0.0
0.870115  -0.061442  0.0
0.861239  -0.059878  0.0
0.896506  -0.056764  0.0
0.887774  -0.061446  0.0
0.905431  -0.061449  0.0
0.89657  -0.059887  0.0
0.878906  -0.059884  0.0
0.887635  -0.055199  0.0
0.869953  -0.055194  0.0
0.878831  -0.05676  0.0
0.843569  -0.059869  0.0
0.852267  -0.055188  0.0
0.834578  -0.055177  0.0
0.843471  -0.056746  0.0
0.86099  -0.050496  0.0
0.869736  -0.045795  0.0
0.852019  -0.045789  0.0
0.860914  -0.047361  0.0
0.825579  -0.050476  0.0
0.834299  -0.04578  0.0
0.816573  -0.045767  0.0
0.825483  -0.047343  0.0
0.843201  -0.047354  0.0
0.83448  -0.052048  0.0
0.852181  -0.052058  0.0
0.843286  -0.050488  0.0
0.77285  -0.059784  0.0
0.781484  -0.055117  0.0
0.763776  -0.055084  0.0
0.772702  -0.056663  0.0
0.790149  -0.050439  0.0
0.798843  -0.04575  0.0
0.781107  -0.045728  0.0
0.790032  -0.047307  0.0
0.754698  -0.050376  0.0
0.763365  -0.045698  0.0
0.745618  -0.045661  0.0
0.754559  -0.047247  0.0
0.772298  -0.047281  0.0
0.763632  -0.051959  0.0
0.781352  -0.051991  0.0
0.772426  -0.050411  0.0
0.807564  -0.041051  0.0
0.816312  -0.036343  0.0
0.798554  -0.036329  0.0
0.807476  -0.037909  0.0
0.825084  -0.031627  0.0
0.83388  -0.026904  0.0
0.816106  -0.026896  0.0
0.825022  -0.028477  0.0
0.789546  -0.031602  0.0
0.798328  -0.026885  0.0
0.780543  -0.026871  0.0
0.789471  -0.028453  0.0
0.80725  -0.028467  0.0
0.798472  -0.033183  0.0
0.816237  -0.033196  0.0
0.807318  -0.031616  0.0
0.736539  -0.040941  0.0
0.745246  -0.036255  0.0
0.727463  -0.036217  0.0
0.736414  -0.037806  0.0
0.753984  -0.031559  0.0
0.762751  -0.026852  0.0
0.744953  -0.026829  0.0
0.753894  -0.028414  0.0
0.718395  -0.031491  0.0
0.727149  -0.0268  0.0
0.709337  -0.026764  0.0
0.718292  -0.028352  0.0
0.736096  -0.028386  0.0
0.727349  -0.03308  0.0
0.745139  -0.033115  0.0
0.736193  -0.031528  0.0
0.771686  -0.028436  0.0
0.762923  -0.033143  0.0
0.780701  -0.033166  0.0
0.771768  -0.031583  0.0
0.754189  -0.037841  0.0
0.745485  -0.042528  0.0
0.763243  -0.042564  0.0
0.754304  -0.040979  0.0
0.78972  -0.037892  0.0
0.780994  -0.042591  0.0
0.79874  -0.042613  0.0
0.789817  -0.041033  0.0
0.772063  -0.041009  0.0
0.780791  -0.03631  0.0
0.763022  -0.036286  0.0
0.771957  -0.03787  0.0
0.631726  -0.065233  0.0
0.623328  -0.069761  0.0
0.641001  -0.069952  0.0
0.632016  -0.068319  0.0
0.61498  -0.074264  0.0
0.606681  -0.078744  0.0
0.624299  -0.078985  0.0
0.615318  -0.077335  0.0
0.65027  -0.074663  0.0
0.641915  -0.07919  0.0
0.659527  -0.079365  0.0
0.650569  -0.077743  0.0
0.632945  -0.077555  0.0
0.641297  -0.073035  0.0
0.623643  -0.072839  0.0
0.632627  -0.07448  0.0
0.598432  -0.083198  0.0
0.590236  -0.087626  0.0
0.607791  -0.087922  0.0
0.598818  -0.086253  0.0
0.582093  -0.092026  0.0
0.574003  -0.096398  0.0
0.591482  -0.096755  0.0
0.582524  -0.095065  0.0
0.617129  -0.092633  0.0
0.608961  -0.097063  0.0
0.626441  -0.097329  0.0
0.617509  -0.09568  0.0
0.600017  -0.095395  0.0
0.608176  -0.090973  0.0
0.590645  -0.090673  0.0
0.599612  -0.092352  0.0
0.66877  -0.084056  0.0
0.660445  -0.088578  0.0
0.677993  -0.088734  0.0
0.669068  -0.087126  0.0
0.652162  -0.093079  0.0
0.643921  -0.097556  0.0
0.661401  -0.097749  0.0
0.652494  -0.096132  0.0
0.687193  -0.093398  0.0
0.678883  -0.097911  0.0
0.696365  -0.098047  0.0
0.68748  -0.096456  0.0
0.669986  -0.096308  0.0
0.678287  -0.091798  0.0
0.66076  -0.09164  0.0
0.669677  -0.093252  0.0
0.635001  -0.095924  0.0
0.643233  -0.091453  0.0
0.625705  -0.091232  0.0
0.634646  -0.092873  0.0
0.651509  -0.086958  0.0
0.659827  -0.082441  0.0
0.642235  -0.082262  0.0
0.651189  -0.083891  0.0
0.616384  -0.086525  0.0
0.62464  -0.082052  0.0
0.607043  -0.081807  0.0
0.616021  -0.083466  0.0
0.633606  -0.083695  0.0
0.625344  -0.088176  0.0
0.642895  -0.088394  0.0
0.633947  -0.086759  0.0
0.565967  -0.100739  0.0
0.557985  -0.10505  0.0
0.575375  -0.105474  0.0
0.566441  -0.10376  0.0
0.550058  -0.109328  0.0
0.542186  -0.113571  0.0
0.559471  -0.114069  0.0
0.550571  -0.11233  0.0
0.584742  -0.110189  0.0
0.576763  -0.114504  0.0
0.594061  -0.114883  0.0
0.585188  -0.113198  0.0
0.567877  -0.112793  0.0
0.575838  -0.10849  0.0
0.55848  -0.108062  0.0
0.567398  -0.109788  0.0
0.534368  -0.117779  0.0
0.526603  -0.121949  0.0
0.543765  -0.122527  0.0
0.534912  -0.120759  0.0
0.518892  -0.126078  0.0
0.511235  -0.130165  0.0
0.528256  -0.130832  0.0
0.519463  -0.129034  0.0
0.55309  -0.127247  0.0
0.545289  -0.131419  0.0
0.562336  -0.131938  0.0
0.553574  -0.130208  0.0
0.536509  -0.129659  0.0
0.54428  -0.125499  0.0
0.52716  -0.124917  0.0
0.535984  -0.1267  0.0
0.603326  -0.119556  0.0
0.59532  -0.123869  0.0
0.612531  -0.124207  0.0
0.603726  -0.12255  0.0
0.587346  -0.12815  0.0
0.579394  -0.132395  0.0
0.596485  -0.132795  0.0
0.58774  -0.131119  0.0
0.621671  -0.128837  0.0
0.613606  -0.133144  0.0
0.630745  -0.133446  0.0
0.622008  -0.131814  0.0
0.604868  -0.131492  0.0
0.612902  -0.127193  0.0
0.595723  -0.126852  0.0
0.6045  -0.128518  0.0
0.570649  -0.130694  0.0
0.57856  -0.12646  0.0
0.561413  -0.126011  0.0
0.57021  -0.127728  0.0
0.586505  -0.122189  0.0
0.594486  -0.117885  0.0
0.577221  -0.117503  0.0
0.586072  -0.119198  0.0
0.552099  -0.1213  0.0
0.559964  -0.117064  0.0
0.542715  -0.116563  0.0
0.551594  -0.118316  0.0
0.568828  -0.118787  0.0
0.560937  -0.123035  0.0
0.578122  -0.123481  0.0
0.569296  -0.121774  0.0
0.705508  -0.102681  0.0
0.697198  -0.107182  0.0
0.714617  -0.1073  0.0
0.705774  -0.105724  0.0
0.688918  -0.111662  0.0
0.680666  -0.11612  0.0
0.698011  -0.116267  0.0
0.689199  -0.114686  0.0
0.723689  -0.111903  0.0
0.715364  -0.116389  0.0
0.732724  -0.116491  0.0
0.723926  -0.114931  0.0
0.706559  -0.11482  0.0
0.714869  -0.110335  0.0
0.697472  -0.110216  0.0
0.706301  -0.111794  0.0
0.672442  -0.120554  0.0
0.664241  -0.124964  0.0
0.681503  -0.125146  0.0
0.672729  -0.123558  0.0
0.656063  -0.129348  0.0
0.64791  -0.133706  0.0
0.665083  -0.133929  0.0
0.656356  -0.132332  0.0
0.690512  -0.129721  0.0
0.682267  -0.134117  0.0
0.699466  -0.134279  0.0
0.690751  -0.132709  0.0
0.673542  -0.132537  0.0
0.681766  -0.128143  0.0
0.664529  -0.127958  0.0
0.673281  -0.12955  0.0
0.741718  -0.121064  0.0
0.733361  -0.125536  0.0
0.75067  -0.125624  0.0
0.741917  -0.124078  0.0
0.725016  -0.129988  0.0
0.716673  -0.134417  0.0
0.733912  -0.134533  0.0
0.7252  -0.132982  0.0
0.75958  -0.130171  0.0
0.751176  -0.134629  0.0
0.76845  -0.134707  0.0
0.759736  -0.133172  0.0
0.742462  -0.133087  0.0
0.750848  -0.128631  0.0
0.733557  -0.12854  0.0
0.742291  -0.130089  0.0
0.707967  -0.132858  0.0
0.716279  -0.128431  0.0
0.699016  -0.128299  0.0
0.707756  -0.129866  0.0
0.724604  -0.123981  0.0
0.732942  -0.119511  0.0
0.715603  -0.119408  0.0
0.724384  -0.12097  0.0
0.690009  -0.123725  0.0
0.698273  -0.119283  0.0
0.680952  -0.119134  0.0
0.689746  -0.120718  0.0
0.70706  -0.120855  0.0
0.698777  -0.1253  0.0
0.716063  -0.125429  0.0
0.707301  -0.123865  0.0
0.639172  -0.132093  0.0
0.647306  -0.127741  0.0
0.630096  -0.127487  0.0
0.63886  -0.129112  0.0
0.65546  -0.123362  0.0
0.66364  -0.118957  0.0
0.646337  -0.118747  0.0
0.655147  -0.12036  0.0
0.620959  -0.122862  0.0
0.629044  -0.118502  0.0
0.611761  -0.118216  0.0
0.620589  -0.119865  0.0
0.637863  -0.120132  0.0
0.629755  -0.124498  0.0
0.646991  -0.124749  0.0
0.638204  -0.123131  0.0
0.671846  -0.114527  0.0
0.680081  -0.110073  0.0
0.662694  -0.109902  0.0
0.671541  -0.111504  0.0
0.688346  -0.105596  0.0
0.696643  -0.101098  0.0
0.679183  -0.10096  0.0
0.688057  -0.102555  0.0
0.6535  -0.10526  0.0
0.661724  -0.100795  0.0
0.644268  -0.1006  0.0
0.653164  -0.102222  0.0
0.67061  -0.102403  0.0
0.662372  -0.106872  0.0
0.679783  -0.107041  0.0
0.670921  -0.105442  0.0
0.602506  -0.113549  0.0
0.610566  -0.109184  0.0
0.5932  -0.108862  0.0
0.602091  -0.110537  0.0
0.618668  -0.104791  0.0
0.626813  -0.10037  0.0
0.60936  -0.100101  0.0
0.61828  -0.101759  0.0
0.583848  -0.104154  0.0
0.591908  -0.099789  0.0
0.574456  -0.099428  0.0
0.583403  -0.101129  0.0
0.600841  -0.101467  0.0
0.592768  -0.105843  0.0
0.610164  -0.106162  0.0
0.601257  -0.104496  0.0
0.635721  -0.102009  0.0
0.627563  -0.106437  0.0
0.644966  -0.106672  0.0
0.636083  -0.105044  0.0
0.619445  -0.110838  0.0
0.611366  -0.115212  0.0
0.62868  -0.115495  0.0
0.61983  -0.113853  0.0
0.65417  -0.111317  0.0
0.646001  -0.115737  0.0
0.66333  -0.115944  0.0
0.6545  -0.114337  0.0
0.637162  -0.114114  0.0
0.645313  -0.1097  0.0
0.627937  -0.109462  0.0
0.636805  -0.111096  0.0
0.914342  -0.066124  0.0
0.905621  -0.070788  0.0
0.923238  -0.07079  0.0
0.9144  -0.069235  0.0
0.896921  -0.075442  0.0
0.888244  -0.080084  0.0
0.905825  -0.080087  0.0
0.896996  -0.078539  0.0
0.932115  -0.075444  0.0
0.923402  -0.080088  0.0
0.940967  -0.080088  0.0
0.932163  -0.078542  0.0
0.914583  -0.078541  0.0
0.923292  -0.073894  0.0
0.905687  -0.073892  0.0
0.91452  -0.075444  0.0
0.87959  -0.084714  0.0
0.870959  -0.089333  0.0
0.888498  -0.089338  0.0
0.879682  -0.087796  0.0
0.862351  -0.093938  0.0
0.853765  -0.098531  0.0
0.87126  -0.098541  0.0
0.862459  -0.097005  0.0
0.897386  -0.09395  0.0
0.888756  -0.098547  0.0
0.906253  -0.09855  0.0
0.897465  -0.097017  0.0
0.879962  -0.097013  0.0
0.888584  -0.092413  0.0
0.87106  -0.092407  0.0
0.879869  -0.093946  0.0
0.94978  -0.084716  0.0
0.941106  -0.089342  0.0
0.958619  -0.089336  0.0
0.949823  -0.087798  0.0
0.932419  -0.093953  0.0
0.923748  -0.098552  0.0
0.941234  -0.098553  0.0
0.932469  -0.097021  0.0
0.967205  -0.093974  0.0
0.958593  -0.098554  0.0
0.975382  -0.098563  0.0
0.967115  -0.097043  0.0
0.949933  -0.097023  0.0
0.958651  -0.092417  0.0
0.941152  -0.092417  0.0
0.9499  -0.093955  0.0
0.914969  -0.09702  0.0
0.923634  -0.092417  0.0
0.906109  -0.092416  0.0
0.914904  -0.093952  0.0
0.932314  -0.087803  0.0
0.94101  -0.083177  0.0
0.923459  -0.083178  0.0
0.932262  -0.08472  0.0
0.897229  -0.0878  0.0
0.905895  -0.083176  0.0
0.888328  -0.083173  0.0
0.89715  -0.084718  0.0
0.914709  -0.08472  0.0
0.906037  -0.089341  0.0
0.923575  -0.089342  0.0
0.914774  -0.087803  0.0
0.845201  -0.103111  0.0
0.836658  -0.107677  0.0
0.854105  -0.107693  0.0
0.845321  -0.106162  0.0
0.828133  -0.112229  0.0
0.819626  -0.116767  0.0
0.837025  -0.116791  0.0
0.828262  -0.115264  0.0
0.862984  -0.112263  0.0
0.854428  -0.116809  0.0
0.871836  -0.116822  0.0
0.863083  -0.115299  0.0
0.84567  -0.115285  0.0
0.854215  -0.110736  0.0
0.836783  -0.11072  0.0
0.845557  -0.112249  0.0
0.811135  -0.121291  0.0
0.802657  -0.125799  0.0
0.820004  -0.125835  0.0
0.811266  -0.12431  0.0
0.794192  -0.130292  0.0
0.785742  -0.13477  0.0
0.803036  -0.13482  0.0
0.794326  -0.133296  0.0
0.828839  -0.130369  0.0
0.820327  -0.13486  0.0
0.837634  -0.134892  0.0
0.828933  -0.133375  0.0
0.811625  -0.133341  0.0
0.820118  -0.128848  0.0
0.802787  -0.128811  0.0
0.811511  -0.130335  0.0
0.880662  -0.12137  0.0
0.872088  -0.125898  0.0
0.889462  -0.125909  0.0
0.880738  -0.124394  0.0
0.863522  -0.130415  0.0
0.854954  -0.134919  0.0
0.872291  -0.134938  0.0
0.863588  -0.133425  0.0
0.898239  -0.13044  0.0
0.889644  -0.134952  0.0
0.906997  -0.134962  0.0
0.898295  -0.133453  0.0
0.880939  -0.133442  0.0
0.889527  -0.128928  0.0
0.872163  -0.128916  0.0
0.880877  -0.130429  0.0
0.846257  -0.133404  0.0
0.854807  -0.128899  0.0
0.837458  -0.128877  0.0
0.846176  -0.130395  0.0
0.86336  -0.124382  0.0
0.871923  -0.119852  0.0
0.854529  -0.119838  0.0
0.863272  -0.121359  0.0
0.828624  -0.124341  0.0
0.83714  -0.11982  0.0
0.819757  -0.119794  0.0
0.828508  -0.12132  0.0
0.845887  -0.121342  0.0
0.837358  -0.125862  0.0
0.85472  -0.125883  0.0
0.845989  -0.124364  0.0
0.982808  -0.102894  0.0
0.976267  -0.107673  0.0
0.991681  -0.10645  0.0
0.983544  -0.105942  0.0
0.967364  -0.112305  0.0
0.958782  -0.116842  0.0
0.975499  -0.116851  0.0
0.967277  -0.115344  0.0
0.996465  -0.114931  0.0
0.991674  -0.11191  0.0
0.996481  -0.121623  0.0
0.990961  -0.116977  0.0
0.982856  -0.115511  0.0
0.976299  -0.110768  0.0
0.983569  -0.112467  0.0
0.95022  -0.121385  0.0
0.941604  -0.125924  0.0
0.95897  -0.125921  0.0
0.950256  -0.124411  0.0
0.932969  -0.130452  0.0
0.924345  -0.134967  0.0
0.941682  -0.134971  0.0
0.933001  -0.133464  0.0
0.967472  -0.130475  0.0
0.95889  -0.134974  0.0
0.975552  -0.134985  0.0
0.967359  -0.133489  0.0
0.95032  -0.133471  0.0
0.958988  -0.128946  0.0
0.941635  -0.128945  0.0
0.950305  -0.130456  0.0
0.996482  -0.133079  0.0
0.991712  -0.130085  0.0
0.990983  -0.137743  0.0
0.99099  -0.135111  0.0
0.98291  -0.133657  0.0
0.976386  -0.128954  0.0
0.983632  -0.13064  0.0
0.99523  -0.127362  0.0
0.990977  -0.119627  0.0
0.967424  -0.12438  0.0
0.975493  -0.119833  0.0
0.958805  -0.11987  0.0
0.967294  -0.121354  0.0
0.982867  -0.121143  0.0
0.976356  -0.125883  0.0
0.991711  -0.12467  0.0
0.9836  -0.124168  0.0
0.91565  -0.13346  0.0
0.924267  -0.128941  0.0
0.906895  -0.128936  0.0
0.915604  -0.130447  0.0
0.932894  -0.124412  0.0
0.941526  -0.119873  0.0
0.924129  -0.119871  0.0
0.932852  -0.121386  0.0
0.89812  -0.124403  0.0
0.906725  -0.119867  0.0
0.889322  -0.119861  0.0
0.898056  -0.121378  0.0
0.915454  -0.121383  0.0
0.906841  -0.125917  0.0
0.924224  -0.125922  0.0
0.915507  -0.124409  0.0
0.950158  -0.115326  0.0
0.958841  -0.110764  0.0
0.941413  -0.110764  0.0
0.95013  -0.112287  0.0
0.967287  -0.106158  0.0
0.975394  -0.101572  0.0
0.958617  -0.101608  0.0
0.967151  -0.103106  0.0
0.932618  -0.106193  0.0
0.941276  -0.101612  0.0
0.923805  -0.101612  0.0
0.932567  -0.10314  0.0
0.949999  -0.103137  0.0
0.941369  -0.107718  0.0
0.958796  -0.107713  0.0
0.950041  -0.106189  0.0
0.880499  -0.115309  0.0
0.88909  -0.110755  0.0
0.871651  -0.110748  0.0
0.880414  -0.112272  0.0
0.897698  -0.106189  0.0
0.906324  -0.10161  0.0
0.888841  -0.101606  0.0
0.897621  -0.103137  0.0
0.862778  -0.106175  0.0
0.87136  -0.1016  0.0
0.85388  -0.10159  0.0
0.862673  -0.103123  0.0
0.880146  -0.103131  0.0
0.871556  -0.107703  0.0
0.889009  -0.10771  0.0
0.880237  -0.106183  0.0
0.915097  -0.103139  0.0
0.906463  -0.107715  0.0
0.923919  -0.107717  0.0
0.91516  -0.106192  0.0
0.897847  -0.112278  0.0
0.889247  -0.11683  0.0
0.906662  -0.116836  0.0
0.897919  -0.115316  0.0
0.932717  -0.112284  0.0
0.924079  -0.116839  0.0
0.941487  -0.116841  0.0
0.932762  -0.115323  0.0
0.915342  -0.11532  0.0
0.923974  -0.110763  0.0
0.906531  -0.11076  0.0
0.915283  -0.112282  0.0
0.777024  -0.133241  0.0
0.785464  -0.128764  0.0
0.768151  -0.128704  0.0
0.776881  -0.130238  0.0
0.793915  -0.12427  0.0
0.80238  -0.119761  0.0
0.785009  -0.119718  0.0
0.793769  -0.121252  0.0
0.759241  -0.124156  0.0
0.767646  -0.119664  0.0
0.75029  -0.119596  0.0
0.75906  -0.121141  0.0
0.776411  -0.121203  0.0
0.76799  -0.125696  0.0
0.785319  -0.125753  0.0
0.776574  -0.12422  0.0
0.810858  -0.115237  0.0
0.819353  -0.110698  0.0
0.801928  -0.110668  0.0
0.810714  -0.112203  0.0
0.827867  -0.106144  0.0
0.836401  -0.101576  0.0
0.818925  -0.101555  0.0
0.827731  -0.103093  0.0
0.792967  -0.106086  0.0
0.80145  -0.101527  0.0
0.783977  -0.10149  0.0
0.792798  -0.103037  0.0
0.810264  -0.103069  0.0
0.801771  -0.107626  0.0
0.819213  -0.107655  0.0
0.810416  -0.106119  0.0
0.7413  -0.115022  0.0
0.749678  -0.110513  0.0
0.732271  -0.110433  0.0
0.741084  -0.111992  0.0
0.75808  -0.105987  0.0
0.766506  -0.101443  0.0
0.749037  -0.101382  0.0
0.757874  -0.10294  0.0
0.723206  -0.10583  0.0
0.73157  -0.101306  0.0
0.714105  -0.101212  0.0
0.722961  -0.102786  0.0
0.740416  -0.102871  0.0
0.73204  -0.107396  0.0
0.749467  -0.107475  0.0
0.740641  -0.105917  0.0
0.775335  -0.102994  0.0
0.766898  -0.107538  0.0
0.784332  -0.107588  0.0
0.775522  -0.106042  0.0
0.758484  -0.112065  0.0
0.750091  -0.116574  0.0
0.767465  -0.11664  0.0
0.75868  -0.115095  0.0
0.793299  -0.112168  0.0
0.784846  -0.116693  0.0
0.802233  -0.116735  0.0
0.79346  -0.115201  0.0
0.776067  -0.115154  0.0
0.784507  -0.110628  0.0
0.76709  -0.110577  0.0
0.775889  -0.112122  0.0
0.844957  -0.096994  0.0
0.853535  -0.092398  0.0
0.83601  -0.092385  0.0
0.844834  -0.093927  0.0
0.862136  -0.087789  0.0
0.87076  -0.083168  0.0
0.853192  -0.08316  0.0
0.862029  -0.084707  0.0
0.827041  -0.087763  0.0
0.835622  -0.083147  0.0
0.818051  -0.083129  0.0
0.826904  -0.084682  0.0
0.844467  -0.084697  0.0
0.83588  -0.089311  0.0
0.85342  -0.089324  0.0
0.844589  -0.087779  0.0
0.879409  -0.078535  0.0
0.88808  -0.07389  0.0
0.870471  -0.073885  0.0
0.87932  -0.075438  0.0
0.896775  -0.069233  0.0
0.905492  -0.064566  0.0
0.887847  -0.064564  0.0
0.896704  -0.066122  0.0
0.861518  -0.069224  0.0
0.8702  -0.064559  0.0
0.85255  -0.064552  0.0
0.861422  -0.066113  0.0
0.879064  -0.066119  0.0
0.870378  -0.070781  0.0
0.888001  -0.070786  0.0
0.879147  -0.06923  0.0
0.809041  -0.078483  0.0
0.817632  -0.073848  0.0
0.800014  -0.073825  0.0
0.808895  -0.075387  0.0
0.826251  -0.0692  0.0
0.834897  -0.06454  0.0
0.81724  -0.064525  0.0
0.826129  -0.06609  0.0
0.790971  -0.069155  0.0
0.79958  -0.064503  0.0
0.781916  -0.064474  0.0
0.790821  -0.066046  0.0
0.808477  -0.066071  0.0
0.799865  -0.070722  0.0
0.817498  -0.070745  0.0
0.808612  -0.069181  0.0
0.843777  -0.066103  0.0
0.835127  -0.070761  0.0
0.852754  -0.070773  0.0
0.843886  -0.069214  0.0
0.826505  -0.075407  0.0
0.817909  -0.08004  0.0
0.835495  -0.080058  0.0
0.826636  -0.078504  0.0
0.861717  -0.075431  0.0
0.85308  -0.08007  0.0
0.870663  -0.080079  0.0
0.861819  -0.078528  0.0
0.844228  -0.078518  0.0
0.85286  -0.073877  0.0
0.835247  -0.073865  0.0
0.844112  -0.075422  0.0
0.704973  -0.096579  0.0
0.713338  -0.09204  0.0
0.695812  -0.09193  0.0
0.704708  -0.093519  0.0
0.721737  -0.087481  0.0
0.73017  -0.082905  0.0
0.712588  -0.08282  0.0
0.721498  -0.084405  0.0
0.686626  -0.087267  0.0
0.695004  -0.082716  0.0
0.677417  -0.082591  0.0
0.686348  -0.084195  0.0
0.703924  -0.08431  0.0
0.69554  -0.088864  0.0
0.713085  -0.088971  0.0
0.704182  -0.087385  0.0
0.738638  -0.078312  0.0
0.747141  -0.073702  0.0
0.72951  -0.073638  0.0
0.738429  -0.075219  0.0
0.755677  -0.069077  0.0
0.764247  -0.064437  0.0
0.746574  -0.06439  0.0
0.755499  -0.06597  0.0
0.720367  -0.068952  0.0
0.728897  -0.06433  0.0
0.711215  -0.064257  0.0
0.720159  -0.065849  0.0
0.737831  -0.065916  0.0
0.7293  -0.070539  0.0
0.746947  -0.070602  0.0
0.738024  -0.069021  0.0
0.668189  -0.077902  0.0
0.676594  -0.073343  0.0
0.658948  -0.073202  0.0
0.667909  -0.074819  0.0
0.68504  -0.068764  0.0
0.693528  -0.064167  0.0
0.675836  -0.064059  0.0
0.6848  -0.065666  0.0
0.649695  -0.068493  0.0
0.658139  -0.06393  0.0
0.640437  -0.063776  0.0
0.649422  -0.065403  0.0
0.667113  -0.065546  0.0
0.658669  -0.070115  0.0
0.676333  -0.070252  0.0
0.66737  -0.06864  0.0
0.702482  -0.065766  0.0
0.693993  -0.070367  0.0
0.711648  -0.070461  0.0
0.702706  -0.068867  0.0
0.685544  -0.074949  0.0
0.677136  -0.079512  0.0
0.694742  -0.079635  0.0
0.685806  -0.078035  0.0
0.720804  -0.075147  0.0
0.712345  -0.079737  0.0
0.729946  -0.079821  0.0
0.721031  -0.078238  0.0
0.70342  -0.078146  0.0
0.711875  -0.073558  0.0
0.694236  -0.07346  0.0
0.703176  -0.075057  0.0
0.773162  -0.066013  0.0
0.76459  -0.070652  0.0
0.782229  -0.070692  0.0
0.773326  -0.069121  0.0
0.75605  -0.075278  0.0
0.747543  -0.079888  0.0
0.765138  -0.079942  0.0
0.756243  -0.078371  0.0
0.791283  -0.07536  0.0
0.78273  -0.079984  0.0
0.800321  -0.080016  0.0
0.791444  -0.078455  0.0
0.773845  -0.078419  0.0
0.782392  -0.073794  0.0
0.764768  -0.073753  0.0
0.773668  -0.075324  0.0
0.739069  -0.084482  0.0
0.730629  -0.08906  0.0
0.748173  -0.089131  0.0
0.73929  -0.08756  0.0
0.722223  -0.093619  0.0
0.713849  -0.09816  0.0
0.731334  -0.098252  0.0
0.722468  -0.09668  0.0
0.757253  -0.093766  0.0
0.74882  -0.098327  0.0
0.766308  -0.098387  0.0
0.75746  -0.096829  0.0
0.739964  -0.096763  0.0
0.748388  -0.092202  0.0
0.730863  -0.092129  0.0
0.739738  -0.0937  0.0
0.80934  -0.08466  0.0
0.800799  -0.089266  0.0
0.81834  -0.089292  0.0
0.809492  -0.087741  0.0
0.792285  -0.093858  0.0
0.783797  -0.098434  0.0
0.801287  -0.09847  0.0
0.792456  -0.096923  0.0
0.827317  -0.093911  0.0
0.818779  -0.098497  0.0
0.836271  -0.098517  0.0
0.827456  -0.096977  0.0
0.809955  -0.096954  0.0
0.818486  -0.092366  0.0
0.800961  -0.092339  0.0
0.809801  -0.093888  0.0
0.774958  -0.096882  0.0
0.783437  -0.092305  0.0
0.765912  -0.092259  0.0
0.774769  -0.093817  0.0
0.791943  -0.087712  0.0
0.800478  -0.083105  0.0
0.782904  -0.083072  0.0
0.791775  -0.084631  0.0
0.756842  -0.087623  0.0
0.765328  -0.083029  0.0
0.74775  -0.082974  0.0
0.75664  -0.084544  0.0
0.774208  -0.084593  0.0
0.765716  -0.089188  0.0
0.783258  -0.089232  0.0
0.774393  -0.087673  0.0
0.502424  -0.128327  0.0
0.510053  -0.124258  0.0
0.492956  -0.123513  0.0
0.501813  -0.125375  0.0
0.517735  -0.120145  0.0
0.525474  -0.115992  0.0
0.508239  -0.115344  0.0
0.51715  -0.117169  0.0
0.483406  -0.118665  0.0
0.491009  -0.114611  0.0
0.473783  -0.113785  0.0
0.482733  -0.115697  0.0
0.499938  -0.116478  0.0
0.492311  -0.120552  0.0
0.509452  -0.121293  0.0
0.500567  -0.11945  0.0
0.53327  -0.1118  0.0
0.541125  -0.107572  0.0
0.523772  -0.107013  0.0
0.532722  -0.108802  0.0
0.549036  -0.103308  0.0
0.557005  -0.099012  0.0
0.539554  -0.098536  0.0
0.548531  -0.100292  0.0
0.514228  -0.102204  0.0
0.522102  -0.097993  0.0
0.504649  -0.097376  0.0
0.513658  -0.099198  0.0
0.531095  -0.09978  0.0
0.52321  -0.10401  0.0
0.540597  -0.104564  0.0
0.531632  -0.102792  0.0
0.464098  -0.108874  0.0
0.471719  -0.10485  0.0
0.454366  -0.103938  0.0
0.463393  -0.105897  0.0
0.479418  -0.100783  0.0
0.487193  -0.096677  0.0
0.469735  -0.095888  0.0
0.47878  -0.097791  0.0
0.444597  -0.098979  0.0
0.452273  -0.095001  0.0
0.434806  -0.094006  0.0
0.443889  -0.096005  0.0
0.461336  -0.09695  0.0
0.453655  -0.10096  0.0
0.471047  -0.101865  0.0
0.46201  -0.099934  0.0
0.49622  -0.098538  0.0
0.488436  -0.102669  0.0
0.505823  -0.103381  0.0
0.496824  -0.101537  0.0
0.480725  -0.10676  0.0
0.473089  -0.110811  0.0
0.490359  -0.111632  0.0
0.481389  -0.109743  0.0
0.515388  -0.108204  0.0
0.507631  -0.112361  0.0
0.524906  -0.113004  0.0
0.515974  -0.111198  0.0
0.498681  -0.110515  0.0
0.506421  -0.106379  0.0
0.48907  -0.10566  0.0
0.498056  -0.107526  0.0
0.565031  -0.094684  0.0
0.573113  -0.090325  0.0
0.555579  -0.089925  0.0
0.564573  -0.09165  0.0
0.58125  -0.085937  0.0
0.589442  -0.081521  0.0
0.571838  -0.081191  0.0
0.580841  -0.082888  0.0
0.546107  -0.085154  0.0
0.554231  -0.080811  0.0
0.536621  -0.080375  0.0
0.54565  -0.082119  0.0
0.563247  -0.08253  0.0
0.55512  -0.086889  0.0
0.572679  -0.087283  0.0
0.56368  -0.085573  0.0
0.597687  -0.077078  0.0
0.605984  -0.072609  0.0
0.588322  -0.072341  0.0
0.597329  -0.074013  0.0
0.614332  -0.068114  0.0
0.62273  -0.063596  0.0
0.605019  -0.063385  0.0
0.614025  -0.065035  0.0
0.578953  -0.0676  0.0
0.587304  -0.063141  0.0
0.569585  -0.062858  0.0
0.578611  -0.064537  0.0
0.59632  -0.064804  0.0
0.58797  -0.069276  0.0
0.605651  -0.069537  0.0
0.596644  -0.067876  0.0
0.52713  -0.075592  0.0
0.535314  -0.071271  0.0
0.517639  -0.070808  0.0
0.526691  -0.072562  0.0
0.543559  -0.066918  0.0
0.551863  -0.062533  0.0
0.534138  -0.062162  0.0
0.543183  -0.063875  0.0
0.508155  -0.066029  0.0
0.516412  -0.061739  0.0
0.498685  -0.061259  0.0
0.507746  -0.063013  0.0
0.525465  -0.063472  0.0
0.517213  -0.067784  0.0
0.534907  -0.068235  0.0
0.525858  -0.066502  0.0
0.560898  -0.064228  0.0
0.552598  -0.06863  0.0
0.570286  -0.068976  0.0
0.561257  -0.067282  0.0
0.544355  -0.073001  0.0
0.536172  -0.077341  0.0
0.553804  -0.077768  0.0
0.544774  -0.076042  0.0
0.579674  -0.073722  0.0
0.571433  -0.07814  0.0
0.589058  -0.078464  0.0
0.580053  -0.07678  0.0
0.562415  -0.076436  0.0
0.570656  -0.072032  0.0
0.552986  -0.071677  0.0
0.562016  -0.073386  0.0
0.425005  -0.089024  0.0
0.432765  -0.08511  0.0
0.415206  -0.084041  0.0
0.42432  -0.086067  0.0
0.440608  -0.081153  0.0
0.448532  -0.077151  0.0
0.430909  -0.076247  0.0
0.440011  -0.078191  0.0
0.405422  -0.079067  0.0
0.413286  -0.075236  0.0
0.395663  -0.074112  0.0
0.404784  -0.076146  0.0
0.422398  -0.077224  0.0
0.414542  -0.0811  0.0
0.432125  -0.082151  0.0
0.423016  -0.080167  0.0
0.456532  -0.073107  0.0
0.464605  -0.069019  0.0
0.446928  -0.068268  0.0
0.456017  -0.070137  0.0
0.472749  -0.064889  0.0
0.48096  -0.060718  0.0
0.463236  -0.060109  0.0
0.47231  -0.06191  0.0
0.43735  -0.063451  0.0
0.445517  -0.059426  0.0
0.427804  -0.058663  0.0
0.436884  -0.060519  0.0
0.454594  -0.061254  0.0
0.446436  -0.065316  0.0
0.464129  -0.066045  0.0
0.455048  -0.064211  0.0
0.385941  -0.069184  0.0
0.393918  -0.06545  0.0
0.376263  -0.064295  0.0
0.385366  -0.066317  0.0
0.401973  -0.06166  0.0
0.4101  -0.057813  0.0
0.392408  -0.05687  0.0
0.401486  -0.058787  0.0
0.366638  -0.059456  0.0
0.374731  -0.055827  0.0
0.357074  -0.054677  0.0
0.366139  -0.056659  0.0
0.383804  -0.057776  0.0
0.375725  -0.061461  0.0
0.393389  -0.06258  0.0
0.384299  -0.060613  0.0
0.41918  -0.059699  0.0
0.411064  -0.063591  0.0
0.428747  -0.0645  0.0
0.419657  -0.062603  0.0
0.403021  -0.06743  0.0
0.395055  -0.071215  0.0
0.412693  -0.072314  0.0
0.403583  -0.070328  0.0
0.438348  -0.069332  0.0
0.430334  -0.073301  0.0
0.447976  -0.074186  0.0
0.438881  -0.07228  0.0
0.421231  -0.071357  0.0
0.429253  -0.067428  0.0
0.411583  -0.066491  0.0
0.420682  -0.068432  0.0
0.490027  -0.062495  0.0
0.481823  -0.066695  0.0
0.499519  -0.067273  0.0
0.490452  -0.065493  0.0
0.473686  -0.070856  0.0
0.465619  -0.074976  0.0
0.48326  -0.075679  0.0
0.474184  -0.073844  0.0
0.509024  -0.072062  0.0
0.5009  -0.076304  0.0
0.518537  -0.076855  0.0
0.509483  -0.075079  0.0
0.491834  -0.074499  0.0
0.499962  -0.070282  0.0
0.482284  -0.069688  0.0
0.491356  -0.071495  0.0
0.457624  -0.079055  0.0
0.449704  -0.083092  0.0
0.467281  -0.083931  0.0
0.458198  -0.082034  0.0
0.441864  -0.087087  0.0
0.434106  -0.091038  0.0
0.451605  -0.092022  0.0
0.442521  -0.090058  0.0
0.476939  -0.088808  0.0
0.469099  -0.092899  0.0
0.486589  -0.093678  0.0
0.477539  -0.091803  0.0
0.460032  -0.090981  0.0
0.46787  -0.08692  0.0
0.450319  -0.086067  0.0
0.459403  -0.087997  0.0
0.528051  -0.081649  0.0
0.519993  -0.085924  0.0
0.537558  -0.086438  0.0
0.528531  -0.084676  0.0
0.512  -0.090164  0.0
0.504075  -0.094369  0.0
0.52156  -0.094979  0.0
0.512543  -0.093178  0.0
0.547051  -0.091219  0.0
0.539042  -0.095516  0.0
0.556523  -0.095987  0.0
0.547536  -0.094247  0.0
0.53004  -0.093747  0.0
0.538043  -0.089467  0.0
0.520504  -0.088944  0.0
0.529527  -0.090725  0.0
0.495042  -0.092532  0.0
0.502962  -0.08835  0.0
0.485418  -0.087678  0.0
0.494471  -0.089527  0.0
0.510952  -0.084132  0.0
0.519008  -0.079879  0.0
0.501393  -0.079315  0.0
0.510448  -0.081115  0.0
0.475786  -0.082818  0.0
0.483775  -0.078678  0.0
0.466154  -0.077959  0.0
0.475234  -0.079825  0.0
0.492842  -0.080509  0.0
0.484854  -0.084677  0.0
0.502425  -0.085339  0.0
0.49337  -0.083515  0.0
0.631176  -0.059055  0.0
0.63967  -0.054492  0.0
0.621918  -0.054331  0.0
0.630919  -0.055962  0.0
0.648208  -0.049908  0.0
0.65679  -0.045305  0.0
0.639007  -0.045187  0.0
0.647999  -0.046802  0.0
0.612667  -0.049607  0.0
0.621219  -0.045048  0.0
0.603426  -0.044886  0.0
0.612434  -0.046516  0.0
0.630219  -0.04667  0.0
0.621672  -0.051238  0.0
0.639437  -0.051392  0.0
0.63044  -0.04977  0.0
0.665414  -0.040683  0.0
0.674078  -0.036044  0.0
0.656271  -0.035962  0.0
0.665252  -0.037565  0.0
0.682781  -0.03139  0.0
0.69152  -0.02672  0.0
0.673695  -0.026668  0.0
0.682663  -0.02826  0.0
0.647142  -0.031245  0.0
0.655865  -0.026606  0.0
0.638029  -0.026533  0.0
0.647009  -0.028129  0.0
0.664839  -0.0282  0.0
0.656123  -0.032845  0.0
0.673938  -0.03292  0.0
0.664964  -0.031323  0.0
0.5942  -0.040172  0.0
0.602818  -0.03562  0.0
0.584993  -0.035466  0.0
0.594  -0.037088  0.0
0.611482  -0.031044  0.0
0.620189  -0.026446  0.0
0.602345  -0.026346  0.0
0.611335  -0.027947  0.0
0.575808  -0.030773  0.0
0.584498  -0.02623  0.0
0.566649  -0.026096  0.0
0.575648  -0.027701  0.0
0.593492  -0.027833  0.0
0.584812  -0.032388  0.0
0.602645  -0.032529  0.0
0.593646  -0.030918  0.0
0.629174  -0.028045  0.0
0.620475  -0.032651  0.0
0.638301  -0.032756  0.0
0.629314  -0.031152  0.0
0.61182  -0.037236  0.0
0.603209  -0.041798  0.0
0.621012  -0.041951  0.0
0.61201  -0.040331  0.0
0.647446  -0.037472  0.0
0.638811  -0.042081  0.0
0.656605  -0.042192  0.0
0.647618  -0.040584  0.0
0.629816  -0.040467  0.0
0.638458  -0.035866  0.0
0.62064  -0.035752  0.0
0.629635  -0.037363  0.0
0.700293  -0.022038  0.0
0.709098  -0.017344  0.0
0.691264  -0.017315  0.0
0.700216  -0.0189  0.0
0.717933  -0.012639  0.0
0.726796  -0.007926  0.0
0.70896  -0.007915  0.0
0.717894  -0.009494  0.0
0.682255  -0.012597  0.0
0.691117  -0.007902  0.0
0.673268  -0.007886  0.0
0.68221  -0.009462  0.0
0.700056  -0.009479  0.0
0.691203  -0.014178  0.0
0.709041  -0.014201  0.0
0.700097  -0.01262  0.0
0.735684  -0.003205  0.0
0.744595  0.001522  0.0
0.726763  0.00152  0.0
0.735679  -5.4e-05  0.0
0.753526  0.006253  0.0
0.762475  0.010987  0.0
0.744654  0.010978  0.0
0.75355  0.009406  0.0
0.717865  0.006239  0.0
0.726827  0.010965  0.0
0.708993  0.01095  0.0
0.717893  0.009385  0.0
0.735725  0.009397  0.0
0.726774  0.004669  0.0
0.744605  0.004674  0.0
0.735699  0.006247  0.0
0.664305  -0.003183  0.0
0.673228  0.001512  0.0
0.65537  0.001509  0.0
0.664298  -5.4e-05  0.0
0.682178  0.006218  0.0
0.691152  0.010932  0.0
0.673305  0.01091  0.0
0.682209  0.009354  0.0
0.646466  0.006188  0.0
0.655452  0.010884  0.0
0.637594  0.010853  0.0
0.646501  0.009309  0.0
0.664358  0.009333  0.0
0.655384  0.004634  0.0
0.673241  0.004645  0.0
0.664324  0.006204  0.0
0.700054  0.009371  0.0
0.691091  0.004655  0.0
0.708936  0.004662  0.0
0.700025  0.00623  0.0
0.682153  -5.4e-05  0.0
0.673241  -0.004753  0.0
0.691092  -0.004763  0.0
0.682159  -0.00319  0.0
0.717844  -5.4e-05  0.0
0.708937  -0.004771  0.0
0.726774  -0.004777  0.0
0.717849  -0.003201  0.0
0.700008  -0.003196  0.0
0.708925  0.001518  0.0
0.691079  0.001516  0.0
0.700001  -5.4e-05  0.0
0.55752  -0.021438  0.0
0.566286  -0.016904  0.0
0.548423  -0.016803  0.0
0.557405  -0.018382  0.0
0.575096  -0.012341  0.0
0.583948  -0.007753  0.0
0.566077  -0.007712  0.0
0.575036  -0.009269  0.0
0.539362  -0.012193  0.0
0.548207  -0.007666  0.0
0.53034  -0.007613  0.0
0.539298  -0.009157  0.0
0.557166  -0.009217  0.0
0.548333  -0.013757  0.0
0.566199  -0.013839  0.0
0.557228  -0.012272  0.0
0.59284  -0.00314  0.0
0.60177  0.001494  0.0
0.583897  0.001487  0.0
0.592832  -5.3e-05  0.0
0.610734  0.006147  0.0
0.619731  0.010817  0.0
0.601865  0.010775  0.0
0.610773  0.009247  0.0
0.574992  0.006091  0.0
0.583996  0.010726  0.0
0.566127  0.01067  0.0
0.575034  0.009163  0.0
0.592904  0.009208  0.0
0.583913  0.004567  0.0
0.601785  0.004588  0.0
0.592864  0.006121  0.0
0.521358  -0.003064  0.0
0.530283  0.00146  0.0
0.51242  0.001448  0.0
0.521348  -5.2e-05  0.0
0.539251  0.006018  0.0
0.548259  0.010606  0.0
0.530394  0.010533  0.0
0.539296  0.009053  0.0
0.503527  0.005923  0.0
0.512534  0.01045  0.0
0.494682  0.010357  0.0
0.503576  0.008911  0.0
0.521432  0.008987  0.0
0.512439  0.004449  0.0
0.530301  0.004484  0.0
0.521385  0.005973  0.0
0.557164  0.009112  0.0
0.548169  0.004516  0.0
0.566041  0.004543  0.0
0.55712  0.006057  0.0
0.539215  -5.2e-05  0.0
0.530302  -0.004588  0.0
0.54817  -0.00462  0.0
0.539224  -0.003087  0.0
0.574958  -5.3e-05  0.0
0.566042  -0.004648  0.0
0.583914  -0.004673  0.0
0.574967  -0.003125  0.0
0.557094  -0.003107  0.0
0.566024  0.001479  0.0
0.548152  0.00147  0.0
0.557085  -5.2e-05  0.0
0.628639  0.00928  0.0
0.619655  0.004606  0.0
0.637522  0.004621  0.0
0.628602  0.006169  0.0
0.610703  -5.3e-05  0.0
0.601786  -0.004694  0.0
0.619656  -0.004712  0.0
0.610712  -0.003154  0.0
0.646438  -5.4e-05  0.0
0.637522  -0.004728  0.0
0.655384  -0.004742  0.0
0.646445  -0.003175  0.0
0.62858  -0.003165  0.0
0.637507  0.001505  0.0
0.61964  0.001499  0.0
0.628573  -5.3e-05  0.0
0.592906  -0.009314  0.0
0.584065  -0.013912  0.0
0.601931  -0.013975  0.0
0.592963  -0.012401  0.0
0.575266  -0.018485  0.0
0.566511  -0.023032  0.0
0.584365  -0.02315  0.0
0.575376  -0.021557  0.0
0.610986  -0.018652  0.0
0.602218  -0.023254  0.0
0.620068  -0.023343  0.0
0.611087  -0.021751  0.0
0.593233  -0.021661  0.0
0.602011  -0.017068  0.0
0.584149  -0.016992  0.0
0.593127  -0.018574  0.0
0.664359  -0.009441  0.0
0.655509  -0.014116  0.0
0.673359  -0.014149  0.0
0.664406  -0.012569  0.0
0.646693  -0.018776  0.0
0.637914  -0.023419  0.0
0.655756  -0.023485  0.0
0.646785  -0.021894  0.0
0.682381  -0.018865  0.0
0.673592  -0.02354  0.0
0.691423  -0.023586  0.0
0.682463  -0.021998  0.0
0.664627  -0.021951  0.0
0.673424  -0.017281  0.0
0.655578  -0.01724  0.0
0.66454  -0.018824  0.0
0.628938  -0.021828  0.0
0.637726  -0.017191  0.0
0.61987  -0.017134  0.0
0.628842  -0.018719  0.0
0.646552  -0.012537  0.0
0.655412  -0.007867  0.0
0.637552  -0.007844  0.0
0.646502  -0.009416  0.0
0.610829  -0.012453  0.0
0.619687  -0.007818  0.0
0.601818  -0.007788  0.0
0.610775  -0.009353  0.0
0.62864  -0.009387  0.0
0.619794  -0.014029  0.0
0.637654  -0.014076  0.0
0.628693  -0.012498  0.0
0.347575  -0.049968  0.0
0.355777  -0.046448  0.0
0.338147  -0.045339  0.0
0.347157  -0.047256  0.0
0.364045  -0.042851  0.0
0.372376  -0.03918  0.0
0.354715  -0.038324  0.0
0.363703  -0.040122  0.0
0.328792  -0.040802  0.0
0.337092  -0.037386  0.0
0.319513  -0.036363  0.0
0.328455  -0.038187  0.0
0.346059  -0.039198  0.0
0.337769  -0.042675  0.0
0.355398  -0.043728  0.0
0.3464  -0.041873  0.0
0.380768  -0.035433  0.0
0.389221  -0.031613  0.0
0.371529  -0.030983  0.0
0.380497  -0.032679  0.0
0.397733  -0.02772  0.0
0.406304  -0.023756  0.0
0.388579  -0.023327  0.0
0.39753  -0.024936  0.0
0.362351  -0.026616  0.0
0.370888  -0.022855  0.0
0.353238  -0.022337  0.0
0.36215  -0.023938  0.0
0.379822  -0.02446  0.0
0.371293  -0.028266  0.0
0.388984  -0.028844  0.0
0.380024  -0.027194  0.0
0.310311  -0.032033  0.0
0.318695  -0.028713  0.0
0.301187  -0.02782  0.0
0.310054  -0.029525  0.0
0.327136  -0.025292  0.0
0.335634  -0.021772  0.0
0.318083  -0.021156  0.0
0.326941  -0.022742  0.0
0.29214  -0.023729  0.0
0.300592  -0.020489  0.0
0.28317  -0.019769  0.0
0.291956  -0.02133  0.0
0.309417  -0.022064  0.0
0.300967  -0.025365  0.0
0.318469  -0.026184  0.0
0.309607  -0.024542  0.0
0.344521  -0.023365  0.0
0.336028  -0.026939  0.0
0.353638  -0.027632  0.0
0.34472  -0.025983  0.0
0.327594  -0.030418  0.0
0.319216  -0.033801  0.0
0.336791  -0.034759  0.0
0.327857  -0.032997  0.0
0.362822  -0.031992  0.0
0.354411  -0.035637  0.0
0.37207  -0.036439  0.0
0.363092  -0.034694  0.0
0.345453  -0.033883  0.0
0.353873  -0.030292  0.0
0.33626  -0.029537  0.0
0.345185  -0.03124  0.0
0.414931  -0.019723  0.0
0.423615  -0.015622  0.0
0.405859  -0.015368  0.0
0.414794  -0.016905  0.0
0.432355  -0.011457  0.0
0.441149  -0.007229  0.0
0.423363  -0.007123  0.0
0.432282  -0.008603  0.0
0.396841  -0.011084  0.0
0.405606  -0.007006  0.0
0.38788  -0.006877  0.0
0.396768  -0.008323  0.0
0.41451  -0.00847  0.0
0.405753  -0.012578  0.0
0.42351  -0.012787  0.0
0.414583  -0.01128  0.0
0.449996  -0.002941  0.0
0.458895  0.001404  0.0
0.441085  0.001386  0.0
0.449985  -4.9e-05  0.0
0.467844  0.005803  0.0
0.476842  0.010252  0.0
0.459016  0.010134  0.0
0.467894  0.008731  0.0
0.432228  0.005653  0.0
0.441209  0.010003  0.0
0.423424  0.009857  0.0
0.432279  0.008505  0.0
0.450076  0.008624  0.0
0.441106  0.004258  0.0
0.458915  0.004314  0.0
0.450025  0.005732  0.0
0.378977  -0.002751  0.0
0.387817  0.001319  0.0
0.37013  0.001291  0.0
0.378966  -4.6e-05  0.0
0.396713  0.005468  0.0
0.405666  0.009695  0.0
0.387941  0.009517  0.0
0.396765  0.008228  0.0
0.361342  0.005245  0.0
0.370254  0.009321  0.0
0.352611  0.009107  0.0
0.361393  0.007892  0.0
0.379059  0.008068  0.0
0.370151  0.003967  0.0
0.387837  0.004051  0.0
0.379007  0.005362  0.0
0.414507  0.008374  0.0
0.405562  0.004127  0.0
0.42332  0.004196  0.0
0.414455  0.005565  0.0
0.396672  -4.7e-05  0.0
0.387838  -0.004144  0.0
0.405563  -0.004222  0.0
0.396683  -0.002805  0.0
0.432187  -4.9e-05  0.0
0.423321  -0.004292  0.0
0.441107  -0.004356  0.0
0.432198  -0.0029  0.0
0.414425  -0.002855  0.0
0.4233  0.001366  0.0
0.405542  0.001343  0.0
0.414414  -4.8e-05  0.0
0.274274  -0.015944  0.0
0.282778  -0.012765  0.0
0.26545  -0.012261  0.0
0.274156  -0.013657  0.0
0.291338  -0.009459  0.0
0.299955  -0.006028  0.0
0.282558  -0.005813  0.0
0.291273  -0.0071  0.0
0.256697  -0.008723  0.0
0.265241  -0.005583  0.0
0.248012  -0.005336  0.0
0.256638  -0.006547  0.0
0.273913  -0.006833  0.0
0.265363  -0.010029  0.0
0.282686  -0.010443  0.0
0.273976  -0.009104  0.0
0.30863  -0.002476  0.0
0.317365  0.001194  0.0
0.299897  0.001155  0.0
0.30862  -4.2e-05  0.0
0.32616  0.004978  0.0
0.335018  0.008873  0.0
0.317482  0.008618  0.0
0.32621  0.007491  0.0
0.291225  0.004664  0.0
0.30001  0.008343  0.0
0.282611  0.008046  0.0
0.291271  0.00702  0.0
0.308706  0.007265  0.0
0.299916  0.00355  0.0
0.317384  0.003667  0.0
0.308658  0.004827  0.0
0.239392  -0.002103  0.0
0.247962  0.001023  0.0
0.230834  0.000972  0.0
0.239384  -3.5e-05  0.0
0.256595  0.004301  0.0
0.265291  0.007728  0.0
0.248059  0.007386  0.0
0.256636  0.006473  0.0
0.222335  0.003887  0.0
0.230924  0.007023  0.0
0.213893  0.006638  0.0
0.222371  0.005851  0.0
0.239453  0.006172  0.0
0.230849  0.002988  0.0
0.247978  0.003142  0.0
0.239414  0.0041  0.0
0.273912  0.006756  0.0
0.265205  0.003288  0.0
0.28252  0.003424  0.0
0.273867  0.004489  0.0
0.256562  -3.7e-05  0.0
0.247979  -0.003215  0.0
0.265206  -0.003363  0.0
0.25657  -0.002206  0.0
0.291188  -4e-05  0.0
0.282521  -0.003502  0.0
0.299917  -0.003632  0.0
0.291198  -0.002393  0.0
0.273842  -0.002303  0.0
0.282503  0.001114  0.0
0.265188  0.00107  0.0
0.273833  -3.9e-05  0.0
0.343774  0.0077  0.0
0.334918  0.003776  0.0
0.352509  0.003876  0.0
0.343724  0.005117  0.0
0.326121  -4.3e-05  0.0
0.317385  -0.003752  0.0
0.334919  -0.003863  0.0
0.326132  -0.002554  0.0
0.361301  -4.5e-05  0.0
0.35251  -0.003965  0.0
0.370152  -0.004059  0.0
0.361312  -0.002691  0.0
0.343695  -0.002625  0.0
0.352489  0.001261  0.0
0.334898  0.001229  0.0
0.343684  -4.4e-05  0.0
0.308708  -0.007348  0.0
0.300089  -0.010827  0.0
0.317563  -0.011184  0.0
0.308776  -0.009788  0.0
0.291527  -0.014188  0.0
0.28302  -0.017426  0.0
0.300436  -0.018063  0.0
0.29165  -0.016562  0.0
0.326483  -0.015136  0.0
0.317922  -0.018653  0.0
0.335469  -0.019198  0.0
0.326615  -0.017665  0.0
0.309099  -0.017135  0.0
0.317662  -0.013669  0.0
0.300185  -0.013234  0.0
0.308972  -0.01468  0.0
0.379061  -0.008161  0.0
0.37034  -0.012094  0.0
0.388028  -0.012347  0.0
0.379134  -0.010869  0.0
0.361676  -0.015941  0.0
0.35307  -0.019699  0.0
0.370719  -0.020157  0.0
0.361813  -0.018601  0.0
0.397053  -0.016614  0.0
0.388408  -0.020575  0.0
0.406134  -0.020956  0.0
0.39719  -0.019384  0.0
0.379482  -0.019011  0.0
0.388133  -0.015087  0.0
0.370445  -0.014778  0.0
0.379345  -0.016293  0.0
0.344188  -0.018153  0.0
0.352799  -0.01444  0.0
0.335203  -0.01407  0.0
0.344054  -0.015555  0.0
0.361468  -0.010633  0.0
0.370194  -0.006735  0.0
0.352551  -0.00658  0.0
0.361395  -0.007983  0.0
0.326282  -0.010093  0.0
0.334959  -0.006411  0.0
0.317425  -0.006227  0.0
0.326212  -0.007577  0.0
0.343777  -0.007789  0.0
0.335101  -0.011513  0.0
0.352696  -0.011816  0.0
0.343848  -0.010375  0.0
0.485728  0.008826  0.0
0.476742  0.004364  0.0
0.494585  0.004409  0.0
0.485679  0.005866  0.0
0.467804  -5e-05  0.0
0.458916  -0.004414  0.0
0.476743  -0.004465  0.0
0.467814  -0.002977  0.0
0.503489  -5.1e-05  0.0
0.494586  -0.004511  0.0
0.51244  -0.004552  0.0
0.503499  -0.003039  0.0
0.48565  -0.00301  0.0
0.494565  0.001435  0.0
0.476722  0.001421  0.0
0.48564  -5.1e-05  0.0
0.450079  -0.008723  0.0
0.441294  -0.012976  0.0
0.459101  -0.013146  0.0
0.450151  -0.011616  0.0
0.432564  -0.017169  0.0
0.423889  -0.0213  0.0
0.441669  -0.021612  0.0
0.4327  -0.020029  0.0
0.468171  -0.01762  0.0
0.45947  -0.021891  0.0
0.477288  -0.022142  0.0
0.468303  -0.020553  0.0
0.450492  -0.020305  0.0
0.459203  -0.016059  0.0
0.441398  -0.015852  0.0
0.450358  -0.017407  0.0
0.521434  -0.00909  0.0
0.512613  -0.013555  0.0
0.53047  -0.013662  0.0
0.521501  -0.012104  0.0
0.50384  -0.017981  0.0
0.495118  -0.022365  0.0
0.512958  -0.022564  0.0
0.503967  -0.020972  0.0
0.539546  -0.018265  0.0
0.530805  -0.02274  0.0
0.548657  -0.022895  0.0
0.539665  -0.021302  0.0
0.521813  -0.021147  0.0
0.530564  -0.016688  0.0
0.512709  -0.016557  0.0
0.52169  -0.018132  0.0
0.486129  -0.020775  0.0
0.494862  -0.01641  0.0
0.477026  -0.016245  0.0
0.486  -0.017811  0.0
0.503646  -0.012002  0.0
0.512478  -0.007553  0.0
0.494625  -0.007485  0.0
0.503577  -0.009014  0.0
0.467967  -0.01176  0.0
0.476784  -0.007409  0.0
0.458957  -0.007324  0.0
0.467896  -0.008831  0.0
0.48573  -0.008927  0.0
0.476925  -0.013298  0.0
0.494763  -0.013434  0.0
0.4858  -0.011888  0.0
0.41527  -0.025368  0.0
0.406709  -0.029369  0.0
0.42446  -0.029845  0.0
0.415472  -0.028197  0.0
0.398206  -0.033304  0.0
0.389762  -0.037169  0.0
0.407483  -0.037831  0.0
0.398476  -0.036105  0.0
0.433701  -0.03438  0.0
0.425227  -0.03843  0.0
0.44299  -0.038969  0.0
0.433966  -0.037264  0.0
0.41621  -0.036714  0.0
0.424694  -0.032702  0.0
0.406944  -0.032185  0.0
0.415942  -0.033869  0.0
0.38138  -0.040964  0.0
0.37306  -0.044688  0.0
0.39075  -0.04556  0.0
0.381722  -0.043743  0.0
0.364804  -0.04834  0.0
0.356614  -0.051921  0.0
0.374274  -0.053026  0.0
0.365223  -0.051102  0.0
0.400176  -0.05022  0.0
0.391956  -0.054029  0.0
0.409655  -0.054936  0.0
0.400588  -0.053068  0.0
0.382895  -0.052133  0.0
0.391127  -0.048375  0.0
0.373439  -0.047457  0.0
0.382479  -0.049326  0.0
0.452325  -0.043605  0.0
0.443942  -0.047706  0.0
0.4617  -0.048282  0.0
0.452649  -0.046536  0.0
0.435622  -0.051756  0.0
0.427367  -0.055754  0.0
0.44509  -0.056488  0.0
0.43602  -0.054671  0.0
0.471112  -0.052993  0.0
0.462821  -0.057146  0.0
0.480557  -0.057733  0.0
0.471491  -0.055962  0.0
0.453752  -0.055353  0.0
0.462053  -0.051233  0.0
0.444303  -0.050629  0.0
0.453363  -0.052409  0.0
0.418298  -0.053912  0.0
0.426563  -0.049955  0.0
0.408836  -0.049205  0.0
0.417892  -0.051028  0.0
0.434893  -0.045943  0.0
0.443286  -0.041877  0.0
0.425527  -0.041302  0.0
0.434562  -0.043044  0.0
0.399425  -0.044552  0.0
0.407787  -0.040664  0.0
0.390068  -0.039958  0.0
0.399085  -0.041728  0.0
0.416814  -0.04242  0.0
0.408463  -0.046351  0.0
0.426195  -0.047064  0.0
0.41715  -0.045283  0.0
0.557802  -0.02755  0.0
0.549141  -0.032038  0.0
0.566977  -0.032225  0.0
0.557969  -0.030606  0.0
0.54053  -0.036494  0.0
0.531971  -0.040918  0.0
0.549782  -0.041184  0.0
0.540757  -0.039535  0.0
0.576178  -0.036916  0.0
0.567593  -0.041418  0.0
0.585402  -0.041622  0.0
0.576387  -0.039988  0.0
0.558572  -0.039777  0.0
0.567165  -0.035289  0.0
0.549337  -0.035087  0.0
0.558354  -0.03672  0.0
0.523466  -0.045307  0.0
0.515018  -0.04966  0.0
0.532797  -0.050018  0.0
0.523756  -0.048332  0.0
0.506627  -0.053976  0.0
0.498296  -0.058255  0.0
0.516037  -0.058717  0.0
0.506982  -0.056987  0.0
0.542149  -0.054745  0.0
0.533778  -0.059125  0.0
0.551518  -0.059483  0.0
0.542477  -0.057789  0.0
0.52473  -0.057413  0.0
0.533107  -0.053053  0.0
0.515339  -0.052678  0.0
0.524388  -0.054385  0.0
0.594645  -0.046337  0.0
0.58613  -0.05085  0.0
0.603903  -0.051059  0.0
0.59489  -0.049418  0.0
0.577667  -0.055337  0.0
0.569255  -0.059797  0.0
0.58699  -0.06007  0.0
0.577967  -0.058405  0.0
0.613172  -0.055784  0.0
0.604721  -0.060306  0.0
0.622448  -0.06051  0.0
0.613444  -0.05887  0.0
0.595708  -0.058654  0.0
0.604163  -0.054143  0.0
0.586403  -0.053925  0.0
0.595421  -0.055577  0.0
0.560224  -0.058118  0.0
0.56864  -0.053673  0.0
0.550874  -0.053384  0.0
0.559909  -0.055061  0.0
0.577109  -0.049199  0.0
0.58563  -0.044699  0.0
0.567831  -0.044482  0.0
0.576853  -0.046129  0.0
0.541541  -0.04866  0.0
0.55003  -0.044234  0.0
0.532229  -0.043951  0.0
0.541262  -0.045618  0.0
0.559058  -0.045891  0.0
0.550576  -0.050334  0.0
0.568354  -0.05061  0.0
0.559326  -0.048948  0.0
0.489235  -0.056505  0.0
0.497573  -0.052252  0.0
0.479811  -0.051772  0.0
0.488868  -0.053514  0.0
0.505972  -0.04796  0.0
0.514429  -0.043629  0.0
0.496632  -0.043264  0.0
0.505673  -0.044954  0.0
0.470417  -0.047066  0.0
0.478841  -0.042854  0.0
0.461058  -0.042393  0.0
0.470099  -0.044107  0.0
0.487883  -0.044556  0.0
0.479467  -0.048796  0.0
0.49724  -0.049254  0.0
0.488192  -0.047539  0.0
0.522942  -0.03926  0.0
0.53151  -0.034855  0.0
0.513685  -0.034593  0.0
0.522708  -0.036238  0.0
0.54013  -0.030416  0.0
0.548801  -0.025943  0.0
0.530954  -0.025768  0.0
0.539957  -0.027377  0.0
0.504462  -0.029953  0.0
0.513112  -0.02557  0.0
0.495276  -0.025346  0.0
0.504278  -0.026958  0.0
0.522115  -0.02718  0.0
0.513475  -0.031584  0.0
0.531306  -0.031825  0.0
0.522294  -0.030199  0.0
0.451739  -0.037758  0.0
0.460252  -0.033587  0.0
0.442464  -0.033168  0.0
0.451479  -0.03484  0.0
0.468823  -0.029365  0.0
0.477449  -0.025094  0.0
0.459635  -0.024811  0.0
0.468629  -0.026425  0.0
0.433236  -0.028628  0.0
0.441836  -0.024496  0.0
0.424058  -0.024145  0.0
0.433036  -0.025758  0.0
0.450824  -0.02611  0.0
0.442234  -0.030273  0.0
0.460026  -0.030658  0.0
0.451021  -0.029017  0.0
0.486448  -0.026707  0.0
0.477832  -0.031003  0.0
0.495649  -0.03131  0.0
0.486637  -0.029676  0.0
0.469271  -0.035252  0.0
0.460768  -0.039453  0.0
0.478559  -0.039887  0.0
0.469527  -0.038201  0.0
0.504889  -0.035948  0.0
0.496357  -0.040272  0.0
0.514162  -0.040615  0.0
0.505131  -0.038948  0.0
0.487325  -0.038597  0.0
0.495866  -0.034296  0.0
0.478054  -0.033962  0.0
0.487076  -0.03562  0.0
FIELD FieldData 2
Strain 3 7788 double
0.01001 -0.003004 1e-06 
0.010015 -0.003008 1e-06 
0.010001 -0.003001 2e-06 
0.010008 -0.003003 7e-06 
0.010006 -0.003002 1e-05 
0.010002 -0.003002 8e-06 
0.010013 -0.003005 9e-06 
0.01002 -0.003009 9e-06 
0.010019 -0.003008 1.5e-05 
0.010013 -0.003008 1.2e-05 
0.010009 -0.003004 1.8e-05 
0.010017 -0.003008 2.1e-05 
0.010014 -0.003007 2.7e-05 
0.010009 -0.003007 2.4e-05 
0.010012 -0.003008 1.7e-05 
0.010006 -0.003004 1.5e-05 
0.010007 -0.003005 1.1e-05 
0.010012 -0.003005 1.3e-05 
0.010014 -0.003009 6e-06 
0.010009 -0.003005 7e-06 
0.010013 -0.003006 4e-06 
0.010014 -0.003006 5e-06 
0.010005 -0.003003 5e-06 
0.010005 -0.003001 3e-06 
0.010003 -0.003001 5e-06 
0.010003 -0.003001 2e-06 
0.010006 -0.003002 -0.0 
0.010008 -0.003003 3e-06 
0.010004 -0.003001 1e-06 
0.010006 -0.003002 2e-06 
0.010009 -0.003003 5e-06 
0.010006 -0.003003 3e-06 
0.009994 -0.002999 1.8e-05 
0.009989 -0.002997 2.1e-05 
0.009987 -0.002997 2e-05 
0.010003 -0.003002 2.7e-05 
0.010011 -0.003006 3.3e-05 
0.010008 -0.003005 3.9e-05 
0.010003 -0.003005 3.6e-05 
0.009993 -0.002999 3.6e-05 
0.010004 -0.003004 4.5e-05 
0.009999 -0.003002 5.1e-05 
0.009993 -0.003002 4.8e-05 
0.009998 -0.003004 4.2e-05 
0.009989 -0.002999 3.4e-05 
0.009994 -0.003001 2.9e-05 
0.009998 -0.003001 3.1e-05 
0.009956 -0.002989 1.1e-05 
0.009969 -0.002991 3.2e-05 
0.009961 -0.002989 3.3e-05 
0.00996 -0.002989 3.4e-05 
0.009981 -0.002996 4.6e-05 
0.009993 -0.003001 5.8e-05 
0.009987 -0.002999 6.4e-05 
0.009981 -0.002999 6.1e-05 
0.009966 -0.002991 5.5e-05 
0.009981 -0.002997 7e-05 
0.009973 -0.002995 7.6e-05 
0.009966 -0.002994 7.4e-05 
0.009974 -0.002996 6.7e-05 
0.009961 -0.002991 5.3e-05 
0.009969 -0.002993 4.8e-05 
0.009974 -0.002993 5e-05 
0.009987 -0.003001 5.5e-05 
0.009976 -0.002995 4.3e-05 
0.009983 -0.002997 3.9e-05 
0.009987 -0.002998 4.1e-05 
0.009964 -0.002991 2.8e-05 
0.009966 -0.002989 1.5e-05 
0.009949 -0.002985 1.3e-05 
0.009961 -0.002989 9e-06 
0.00998 -0.002995 2.3e-05 
0.00998 -0.002994 9e-06 
0.00997 -0.002992 8e-06 
0.009979 -0.002994 8e-06 
0.009987 -0.002996 7e-06 
0.009973 -0.002991 1.1e-05 
0.009983 -0.002995 2.5e-05 
0.009976 -0.002993 2.8e-05 
0.009972 -0.002993 2.5e-05 
0.010006 -0.003006 3e-05 
0.009999 -0.003002 2.5e-05 
0.010003 -0.003003 2e-05 
0.010006 -0.003003 2.2e-05 
0.009992 -0.002999 1.7e-05 
0.009992 -0.002998 5e-06 
0.009986 -0.002996 7e-06 
0.010001 -0.003001 1.2e-05 
0.01 -0.003001 4e-06 
0.009992 -0.002998 6e-06 
0.009997 -0.002999 5e-06 
0.009997 -0.002999 4e-06 
0.010003 -0.003001 1.2e-05 
0.009999 -0.003 1.5e-05 
0.009997 -0.003 1.4e-05 
0.009931 -0.00298 4.2e-05 
0.009919 -0.002976 4.6e-05 
0.009913 -0.002975 4.3e-05 
0.009948 -0.002986 6.4e-05 
0.009966 -0.002993 8.2e-05 
0.009957 -0.00299 8.9e-05 
0.009948 -0.002989 8.6e-05 
0.009928 -0.00298 7.4e-05 
0.009948 -0.002988 9.5e-05 
0.009939 -0.002985 0.000101 
0.009928 -0.002983 9.8e-05 
0.009938 -0.002986 9.2e-05 
0.009919 -0.002978 7.2e-05 
0.009931 -0.002982 6.7e-05 
0.009938 -0.002983 6.9e-05 
0.009858 -0.002959 1.5e-05 
0.009881 -0.002966 5.3e-05 
0.009867 -0.002961 5.5e-05 
0.009859 -0.002958 5.8e-05 
0.009906 -0.002973 8.3e-05 
0.009929 -0.002982 0.000106 
0.009919 -0.002978 0.000112 
0.009906 -0.002976 0.00011 
0.009881 -0.002966 9.1e-05 
0.009908 -0.002975 0.000118 
0.009897 -0.002972 0.000123 
0.009881 -0.002968 0.000121 
0.009893 -0.002972 0.000116 
0.009868 -0.002962 9e-05 
0.009882 -0.002967 8.7e-05 
0.009893 -0.00297 8.7e-05 
0.009917 -0.002979 0.000104 
0.009895 -0.002971 8.1e-05 
0.009907 -0.002975 7.6e-05 
0.009917 -0.002977 7.9e-05 
0.009878 -0.002964 5.7e-05 
0.009856 -0.002956 2.3e-05 
0.009836 -0.00295 2.4e-05 
0.009871 -0.002965 1.7e-05 
0.009899 -0.002971 4.6e-05 
0.009899 -0.002969 2e-05 
0.009875 -0.002964 1.6e-05 
0.009892 -0.002968 1.6e-05 
0.009913 -0.002974 1.6e-05 
0.009888 -0.002965 2.7e-05 
0.009907 -0.002973 5e-05 
0.009895 -0.002969 5.3e-05 
0.009884 -0.002967 4.8e-05 
0.009784 -0.002935 2.8e-05 
0.00982 -0.002947 6.6e-05 
0.009803 -0.002941 7e-05 
0.009784 -0.002936 6.5e-05 
0.009854 -0.002958 9.9e-05 
0.009885 -0.002968 0.000128 
0.009873 -0.002965 0.000133 
0.009854 -0.002959 0.000131 
0.009825 -0.002949 0.000107 
0.009862 -0.002961 0.000137 
0.00985 -0.002957 0.000141 
0.009825 -0.00295 0.000139 
0.009839 -0.002955 0.000135 
0.009803 -0.002943 0.000104 
0.00982 -0.002948 0.000101 
0.009839 -0.002953 0.000104 
0.009708 -0.002914 1.8e-05 
0.009753 -0.002929 7.1e-05 
0.009735 -0.002922 7.1e-05 
0.009709 -0.002912 7.9e-05 
0.009796 -0.00294 0.000111 
0.009837 -0.002953 0.000143 
0.009825 -0.002949 0.000146 
0.009796 -0.00294 0.000145 
0.009767 -0.002931 0.000114 
0.009813 -0.002946 0.000147 
0.009802 -0.002942 0.000147 
0.009767 -0.00293 0.000147 
0.009782 -0.002935 0.000147 
0.009735 -0.00292 0.000116 
0.009754 -0.002926 0.000116 
0.009781 -0.002936 0.000113 
0.009811 -0.002945 0.000141 
0.009771 -0.002932 0.00011 
0.009786 -0.002937 0.000107 
0.009811 -0.002945 0.00011 
0.009736 -0.00292 8.2e-05 
0.009725 -0.002923 1.9e-05 
0.009661 -0.002896 3.3e-05 
0.00969 -0.002906 3.4e-05 
0.009764 -0.00293 6.5e-05 
0.009765 -0.002927 3.5e-05 
0.009718 -0.002917 1.9e-05 
0.009743 -0.002923 2.1e-05 
0.009748 -0.002922 4.4e-05 
0.009787 -0.002937 7.4e-05 
0.009771 -0.002931 7.5e-05 
0.009744 -0.002926 6.5e-05 
0.009867 -0.002964 0.000126 
0.009837 -0.002953 9.8e-05 
0.009852 -0.002957 9.4e-05 
0.009867 -0.002962 9.5e-05 
0.009804 -0.002941 6.4e-05 
0.009768 -0.00293 2.2e-05 
0.009804 -0.002942 2.3e-05 
0.009841 -0.002953 6e-05 
0.009841 -0.002954 1.7e-05 
0.009792 -0.002936 2.4e-05 
0.009814 -0.002943 2.4e-05 
0.009823 -0.002948 2e-05 
0.009852 -0.002957 5.8e-05 
0.009837 -0.002952 6.2e-05 
0.009823 -0.002947 6.2e-05 
0.009957 -0.002992 8e-05 
0.009942 -0.002985 6.2e-05 
0.009952 -0.002988 5.8e-05 
0.009957 -0.002989 5.9e-05 
0.009926 -0.002978 4.1e-05 
0.009909 -0.002972 1.5e-05 
0.009949 -0.002985 3.6e-05 
0.009926 -0.002978 1.4e-05 
0.009948 -0.002985 1e-05 
0.009924 -0.002977 1.5e-05 
0.009937 -0.002981 1.4e-05 
0.009938 -0.002982 1.2e-05 
0.009952 -0.002986 3.5e-05 
0.009942 -0.002983 3.8e-05 
0.009938 -0.002982 3.8e-05 
0.009619 -0.002884 4.4e-05 
0.009681 -0.002905 7.9e-05 
0.009665 -0.002901 8.1e-05 
0.009618 -0.002885 7e-05 
0.009738 -0.002922 0.000115 
0.009791 -0.002938 0.000146 
0.00978 -0.002935 0.000144 
0.009738 -0.00292 0.000145 
0.009713 -0.002915 0.000112 
0.009771 -0.002931 0.00014 
0.009763 -0.002927 0.000134 
0.009713 -0.00291 0.000135 
0.009725 -0.002915 0.000141 
0.009664 -0.002898 0.00011 
0.009681 -0.002903 0.000113 
0.009725 -0.002919 0.000115 
0.009543 -0.002867 1.3e-05 
0.00962 -0.002888 6.2e-05 
0.009608 -0.002885 6e-05 
0.009543 -0.002859 7.3e-05 
0.009691 -0.002908 9.9e-05 
0.009756 -0.002925 0.000126 
0.009751 -0.002923 0.000115 
0.009692 -0.0029 0.000121 
0.009677 -0.002903 8.3e-05 
0.009748 -0.00292 0.000101 
0.009747 -0.002919 8.4e-05 
0.009677 -0.002891 9.2e-05 
0.009683 -0.002895 0.000108 
0.009608 -0.002876 8.9e-05 
0.00962 -0.002881 0.0001 
0.009683 -0.002905 9.1e-05 
0.009702 -0.002904 0.00013 
0.009635 -0.002886 0.000108 
0.009652 -0.002892 0.000108 
0.009702 -0.00291 0.000105 
0.009564 -0.002866 8.1e-05 
0.009562 -0.00287 7e-06 
0.009457 -0.002831 3.4e-05 
0.009485 -0.002841 4.1e-05 
0.0096 -0.002881 6.3e-05 
0.009602 -0.002881 5.6e-05 
0.009578 -0.002879 9e-06 
0.009544 -0.002865 2e-05 
0.009516 -0.002853 4.4e-05 
0.009652 -0.002894 7.7e-05 
0.009634 -0.002893 6.5e-05 
0.009592 -0.002876 9e-05 
0.009487 -0.002844 5.3e-05 
0.009586 -0.002877 4.9e-05 
0.009587 -0.002879 3.9e-05 
0.009488 -0.00284 1.8e-05 
0.009674 -0.0029 5.6e-05 
0.00975 -0.002918 6.2e-05 
0.009756 -0.002918 3.6e-05 
0.009674 -0.002884 4.6e-05 
0.009687 -0.002901 1.2e-05 
0.009767 -0.002919 4e-06 
0.009782 -0.00292 -3.6e-05 
0.009687 -0.002879 -2.1e-05 
0.009678 -0.002881 1.6e-05 
0.009588 -0.002862 1.5e-05 
0.009586 -0.002864 4e-05 
0.009678 -0.002901 3.8e-05 
0.009498 -0.002856 -2e-05 
0.009619 -0.002887 -3.5e-05 
0.009645 -0.002896 -5.6e-05 
0.009498 -0.002834 -3.2e-05 
0.00972 -0.00291 -5.7e-05 
0.009803 -0.002923 -8.3e-05 
0.009831 -0.002928 -0.000141 
0.00972 -0.002877 -0.000115 
0.009786 -0.002925 -0.000152 
0.009867 -0.002933 -0.000211 
0.009912 -0.00294 -0.000295 
0.009786 -0.002877 -0.00026 
0.009748 -0.002877 -0.00018 
0.009645 -0.002863 -0.000127 
0.009619 -0.002861 -7.5e-05 
0.009748 -0.002916 -0.0001 
0.0097 -0.002877 -6.2e-05 
0.009602 -0.00286 -3.2e-05 
0.009596 -0.002861 -6e-06 
0.0097 -0.002904 -2.1e-05 
0.009487 -0.002835 1e-06 
0.009486 -0.002847 -3.1e-05 
0.009351 -0.002793 -2e-06 
0.009349 -0.002795 1.9e-05 
0.009494 -0.002843 -9e-06 
0.009482 -0.002848 6.2e-05 
0.009356 -0.002805 3.2e-05 
0.00937 -0.002812 -1.2e-05 
0.009482 -0.002851 -3.6e-05 
0.009596 -0.002874 1.5e-05 
0.009603 -0.002884 -1.5e-05 
0.009494 -0.002841 3.3e-05 
0.009674 -0.002887 7.1e-05 
0.009591 -0.002867 6e-05 
0.009598 -0.002871 7.6e-05 
0.009674 -0.002901 7.1e-05 
0.009496 -0.002842 3.6e-05 
0.009496 -0.002851 3.9e-05 
0.009385 -0.00281 0.0 
0.009406 -0.002815 1.5e-05 
0.009509 -0.002857 2.8e-05 
0.009525 -0.002852 6.4e-05 
0.009525 -0.002862 2e-05 
0.00943 -0.002823 2.5e-05 
0.009598 -0.002882 5.8e-05 
0.009591 -0.002879 5.5e-05 
0.009509 -0.002847 5.1e-05 
0.009653 -0.00292 7e-06 
0.009797 -0.002945 -0.000172 
0.009884 -0.002948 -0.000267 
0.009702 -0.002878 -0.000282 
0.009896 -0.002952 -0.000298 
0.009968 -0.002949 -0.0004 
0.010035 -0.002956 -0.000527 
0.009897 -0.00288 -0.000479 
0.010069 -0.002987 -0.000536 
0.010116 -0.002965 -0.000685 
0.010212 -0.002975 -0.000883 
0.010068 -0.002881 -0.000802 
0.009973 -0.00288 -0.000623 
0.009883 -0.002893 -0.000476 
0.009802 -0.002882 -0.000375 
0.009972 -0.002963 -0.000403 
0.010179 -0.00307 -0.000209 
0.010289 -0.003077 -0.000604 
0.010513 -0.003142 -0.000806 
0.010179 -0.002964 -0.000708 
0.010327 -0.00304 -0.000912 
0.010323 -0.002979 -0.001133 
0.010449 -0.002975 -0.001453 
0.010326 -0.002865 -0.001331 
0.010698 -0.003089 -0.001589 
0.010583 -0.002951 -0.001866 
0.010715 -0.002887 -0.002401 
0.010698 -0.00278 -0.002227 
0.010498 -0.002837 -0.001718 
0.010513 -0.002933 -0.001435 
0.010289 -0.002928 -0.001073 
0.010498 -0.003068 -0.001197 
0.010184 -0.002877 -0.001034 
0.010113 -0.002917 -0.00081 
0.009978 -0.002905 -0.000616 
0.010185 -0.003012 -0.000701 
0.009978 -0.002931 -0.0005 
0.009979 -0.003 -0.000189 
0.009956 -0.002938 -0.000258 
0.009749 -0.002893 -0.00015 
0.009732 -0.002893 -0.000246 
0.009512 -0.002856 -2.6e-05 
0.009606 -0.002864 -7.5e-05 
0.009741 -0.002914 -0.000193 
0.009835 -0.00294 -0.000187 
0.009983 -0.002985 -0.000362 
0.010115 -0.003024 -0.000463 
0.009831 -0.002907 -0.000354 
0.011886 -0.003573 -0.001148 
0.011526 -0.003309 -0.002397 
0.01182 -0.003093 -0.003772 
0.012251 -0.003026 -0.003379 
0.011125 -0.002997 -0.002913 
0.010818 -0.002744 -0.003088 
0.010841 -0.002449 -0.003922 
0.011129 -0.002458 -0.003768 
0.011206 -0.00221 -0.005176 
0.01073 -0.00195 -0.004835 
0.010385 -0.001041 -0.005557 
0.011214 -0.001502 -0.005905 
0.011245 -0.002092 -0.004778 
0.011814 -0.00231 -0.004997 
0.011559 -0.002688 -0.003717 
0.011242 -0.002714 -0.003955 
0.010746 -0.000659 -0.006126 
0.010337 0.0 -0.006348 
0.010711 -0.00076 -0.006262 
0.011993 -0.001557 -0.00679 
0.010698 -0.000645 -0.006171 
0.011188 0.0 -0.007221 
0.013221 0.0 -0.008733 
0.012488 -0.002566 -0.005012 
0.013043 -0.003614 -0.0023 
0.017691 -0.003068 -0.008214 
0.01305 -0.003594 -0.002328 
0.013998 -0.004368 -0.003818 
0.012013 -0.002656 -0.005428 
0.012269 -0.001186 -0.00643 
0.013376 -0.001499 -0.007975 
0.010918 -0.002669 -0.002899 
0.011151 -0.002858 -0.002673 
0.010798 -0.002919 -0.001944 
0.010917 -0.003082 -0.002138 
0.011398 -0.003076 -0.002181 
0.011361 -0.00346 -0.000534 
0.011538 -0.003273 -0.001196 
0.01073 -0.003104 -0.000688 
0.010456 -0.003004 -0.001006 
0.010259 -0.003004 -0.000417 
0.010456 -0.003164 -0.000249 
0.01084 -0.003291 -0.000331 
0.010797 -0.003219 -0.00111 
0.011145 -0.003296 -0.001595 
0.010845 -0.003048 -0.001457 
0.009834 -0.002879 -0.000358 
0.009732 -0.002874 -0.000271 
0.009682 -0.002867 -0.000192 
0.009834 -0.002937 -0.000216 
0.009606 -0.002856 -0.000186 
0.009602 -0.002885 1.3e-05 
0.009438 -0.002823 -9.3e-05 
0.009391 -0.002801 -6.1e-05 
0.009519 -0.002837 -7.3e-05 
0.009364 -0.002794 -2.8e-05 
0.009554 -0.002875 -1e-06 
0.009519 -0.002865 -1.1e-05 
0.009682 -0.002907 -8.3e-05 
0.009732 -0.002921 -0.000118 
0.009554 -0.002843 -0.000124 
0.009752 -0.002925 0.000147 
0.009699 -0.002909 0.000115 
0.009717 -0.002915 0.000116 
0.009752 -0.002927 0.000115 
0.009641 -0.002891 7.4e-05 
0.009603 -0.002878 2.8e-05 
0.009574 -0.00287 2.3e-05 
0.009641 -0.002894 3.4e-05 
0.009686 -0.002905 7.8e-05 
0.009686 -0.002908 2.2e-05 
0.009633 -0.002887 3.1e-05 
0.009717 -0.002917 7.4e-05 
0.009663 -0.002901 2.7e-05 
0.009699 -0.002911 7.7e-05 
0.009663 -0.002897 7.6e-05 
0.010074 -0.003045 2e-06 
0.010096 -0.003056 8e-06 
0.010107 -0.003062 1.3e-05 
0.010119 -0.00307 1.9e-05 
0.010107 -0.003069 1.3e-05 
0.010119 -0.003074 3e-06 
0.010141 -0.003086 8e-06 
0.01013 -0.003078 2.5e-05 
0.010141 -0.003086 1.9e-05 
0.010141 -0.003085 3.1e-05 
0.01013 -0.003085 2.5e-05 
0.01013 -0.003086 1.3e-05 
0.010119 -0.003078 1.9e-05 
0.010126 -0.003079 9e-06 
0.01013 -0.003079 1.3e-05 
0.010163 -0.003103 3e-06 
0.010184 -0.003114 7e-06 
0.010153 -0.003092 3.7e-05 
0.010163 -0.0031 3e-05 
0.010164 -0.0031 4.2e-05 
0.010153 -0.0031 3.6e-05 
0.010174 -0.003106 2.3e-05 
0.010184 -0.003114 1.7e-05 
0.010184 -0.003113 2.8e-05 
0.010174 -0.003113 2.2e-05 
0.010175 -0.003107 4.7e-05 
0.010185 -0.003113 3.9e-05 
0.010186 -0.003113 5.1e-05 
0.010175 -0.003113 4.5e-05 
0.010174 -0.003113 3.3e-05 
0.010164 -0.003106 4.1e-05 
0.010163 -0.003106 2.9e-05 
0.010174 -0.003107 3.5e-05 
0.010174 -0.003114 1.2e-05 
0.010163 -0.003106 1.7e-05 
0.01017 -0.003108 8e-06 
0.010174 -0.003107 1.2e-05 
0.010152 -0.0031 2.3e-05 
0.010141 -0.003092 3e-05 
0.010141 -0.003092 1.9e-05 
0.010152 -0.003092 2.4e-05 
0.01015 -0.003094 2e-06 
0.010157 -0.003098 9e-06 
0.010132 -0.003084 2e-06 
0.010141 -0.003092 8e-06 
0.010152 -0.003092 1.3e-05 
0.010163 -0.0031 1.8e-05 
0.010152 -0.003099 1.2e-05 
0.010105 -0.003064 2e-06 
0.010112 -0.003069 9e-06 
0.010087 -0.003055 2e-06 
0.010096 -0.003062 8e-06 
0.010196 -0.00312 5.4e-05 
0.010205 -0.003126 4.5e-05 
0.010206 -0.003126 5.6e-05 
0.010196 -0.003126 5e-05 
0.010213 -0.003131 3.8e-05 
0.01022 -0.003137 3e-05 
0.010221 -0.003137 3.9e-05 
0.010213 -0.003137 3.5e-05 
0.010216 -0.003131 5.7e-05 
0.010223 -0.003137 4.8e-05 
0.010225 -0.003137 5.7e-05 
0.010216 -0.003136 5.2e-05 
0.010214 -0.003137 4.3e-05 
0.010206 -0.003131 5.2e-05 
0.010205 -0.003131 4.2e-05 
0.010214 -0.003131 4.7e-05 
0.010227 -0.003141 2.4e-05 
0.010233 -0.003146 1.8e-05 
0.010234 -0.003146 2.5e-05 
0.010227 -0.003146 2.1e-05 
0.010238 -0.00315 1.2e-05 
0.010243 -0.003153 8e-06 
0.010243 -0.003153 1.3e-05 
0.010238 -0.003153 1e-05 
0.01024 -0.00315 2.5e-05 
0.010244 -0.003153 1.9e-05 
0.010246 -0.003153 2.5e-05 
0.01024 -0.003153 2.1e-05 
0.010239 -0.003153 1.6e-05 
0.010234 -0.00315 2.2e-05 
0.010233 -0.00315 1.5e-05 
0.010239 -0.00315 1.9e-05 
0.010233 -0.003141 5.6e-05 
0.010239 -0.003146 4.7e-05 
0.010241 -0.003146 5.4e-05 
0.010233 -0.003145 4.9e-05 
0.010244 -0.00315 3.8e-05 
0.010248 -0.003153 3e-05 
0.01025 -0.003153 3.6e-05 
0.010244 -0.003153 3.2e-05 
0.010248 -0.003149 5e-05 
0.010252 -0.003153 4.1e-05 
0.010255 -0.003152 4.6e-05 
0.010248 -0.003152 4.2e-05 
0.010246 -0.003153 3.7e-05 
0.010241 -0.003149 4.6e-05 
0.010239 -0.003149 4e-05 
0.010246 -0.00315 4.4e-05 
0.010242 -0.003153 2.7e-05 
0.010237 -0.00315 3.4e-05 
0.010235 -0.00315 2.8e-05 
0.010242 -0.00315 3.2e-05 
0.010231 -0.003146 4.2e-05 
0.010225 -0.003141 5.1e-05 
0.010223 -0.003141 4.3e-05 
0.010231 -0.003141 4.8e-05 
0.010228 -0.003146 2.8e-05 
0.010221 -0.003141 3.5e-05 
0.01022 -0.003141 2.7e-05 
0.010228 -0.003141 3.2e-05 
0.010229 -0.003142 4e-05 
0.010235 -0.003146 3.2e-05 
0.010237 -0.003146 3.9e-05 
0.010229 -0.003146 3.5e-05 
0.010246 -0.003156 5e-06 
0.01025 -0.003159 5e-06 
0.010247 -0.003158 4e-06 
0.01025 -0.003159 1e-06 
0.010254 -0.003162 1e-06 
0.010253 -0.00316 5e-06 
0.010254 -0.003162 3e-06 
0.010255 -0.003162 4e-06 
0.010253 -0.003162 3e-06 
0.010252 -0.003162 2e-06 
0.01025 -0.00316 4e-06 
0.010251 -0.003161 2e-06 
0.010252 -0.003161 3e-06 
0.010254 -0.003162 -0.0 
0.010251 -0.003161 -1e-06 
0.010256 -0.003162 3e-06 
0.010255 -0.003163 -0.0 
0.010257 -0.003163 -0.0 
0.010256 -0.003163 -1e-06 
0.010254 -0.003162 -2e-06 
0.010252 -0.003161 -3e-06 
0.010253 -0.003161 -5e-06 
0.010254 -0.003161 -4e-06 
0.010256 -0.003162 -4e-06 
0.010254 -0.003161 -7e-06 
0.010255 -0.003161 -9e-06 
0.010256 -0.003161 -8e-06 
0.010255 -0.003161 -6e-06 
0.010257 -0.003162 -4e-06 
0.010255 -0.003162 -3e-06 
0.010255 -0.003162 -3e-06 
0.010253 -0.003161 -2e-06 
0.010255 -0.003162 -2e-06 
0.010254 -0.003162 -1e-06 
0.010253 -0.003162 -1e-06 
0.010255 -0.003163 -0.0 
0.010255 -0.003162 2e-06 
0.010254 -0.003162 1e-06 
0.010255 -0.003162 2e-06 
0.010254 -0.003162 0.0 
0.010254 -0.003163 -0.0 
0.010253 -0.003161 0.0 
0.010254 -0.003162 1e-06 
0.010255 -0.003162 1e-06 
0.010255 -0.003163 -0.0 
0.010255 -0.003163 -0.0 
0.010261 -0.003155 4.1e-05 
0.010263 -0.003157 3.1e-05 
0.010266 -0.003157 3.4e-05 
0.010261 -0.003157 3.1e-05 
0.010264 -0.003159 2.2e-05 
0.010264 -0.003161 1.4e-05 
0.010267 -0.00316 1.5e-05 
0.010264 -0.003161 1.3e-05 
0.01027 -0.003158 2.7e-05 
0.01027 -0.00316 1.7e-05 
0.010274 -0.003159 1.9e-05 
0.01027 -0.003159 1.6e-05 
0.010267 -0.00316 1.5e-05 
0.010266 -0.003158 2.4e-05 
0.010263 -0.003159 2.2e-05 
0.010267 -0.003159 2.4e-05 
0.010264 -0.003162 6e-06 
0.010262 -0.003162 -0.0 
0.010265 -0.003162 -1e-06 
0.010264 -0.003162 -2e-06 
0.01026 -0.003162 -6e-06 
0.010257 -0.003161 -1.1e-05 
0.010259 -0.003161 -1.3e-05 
0.01026 -0.003161 -1.3e-05 
0.010265 -0.003161 -8e-06 
0.010262 -0.003161 -1.5e-05 
0.010265 -0.00316 -1.6e-05 
0.010265 -0.00316 -1.7e-05 
0.010262 -0.003161 -1.5e-05 
0.010265 -0.003161 -9e-06 
0.010262 -0.003162 -8e-06 
0.010262 -0.003162 -7e-06 
0.010276 -0.003159 1e-05 
0.010274 -0.00316 -0.0 
0.010278 -0.003158 -0.0 
0.010276 -0.003159 -3e-06 
0.010271 -0.00316 -1e-05 
0.010268 -0.003159 -1.8e-05 
0.010271 -0.003158 -2e-05 
0.010271 -0.003159 -2.1e-05 
0.010279 -0.003157 -1.1e-05 
0.010275 -0.003157 -2.1e-05 
0.010278 -0.003155 -2.2e-05 
0.010279 -0.003156 -2.4e-05 
0.010275 -0.003158 -2.3e-05 
0.010278 -0.003158 -1.3e-05 
0.010274 -0.003159 -1.2e-05 
0.010275 -0.003159 -1e-05 
0.010268 -0.00316 -1.9e-05 
0.010271 -0.00316 -1.1e-05 
0.010268 -0.003161 -1e-05 
0.010268 -0.003161 -9e-06 
0.010273 -0.00316 -2e-06 
0.010274 -0.003159 7e-06 
0.01027 -0.00316 7e-06 
0.010273 -0.00316 9e-06 
0.010266 -0.003162 -2e-06 
0.010267 -0.003161 6e-06 
0.010264 -0.003162 5e-06 
0.010266 -0.003161 7e-06 
0.010269 -0.003161 8e-06 
0.010268 -0.003161 -1e-06 
0.010271 -0.003161 -1e-06 
0.010269 -0.003161 -2e-06 
0.010258 -0.003161 -1.1e-05 
0.01026 -0.003162 -6e-06 
0.010258 -0.003162 -5e-06 
0.010258 -0.003162 -5e-06 
0.010261 -0.003162 -1e-06 
0.010262 -0.003162 5e-06 
0.010259 -0.003162 4e-06 
0.010261 -0.003162 5e-06 
0.010257 -0.003163 -1e-06 
0.010257 -0.003162 3e-06 
0.010256 -0.003162 3e-06 
0.010257 -0.003162 3e-06 
0.010259 -0.003162 4e-06 
0.010258 -0.003162 -0.0 
0.01026 -0.003162 -0.0 
0.010259 -0.003162 -1e-06 
0.010261 -0.003161 1.2e-05 
0.01026 -0.00316 1.9e-05 
0.010257 -0.00316 1.7e-05 
0.010261 -0.00316 1.9e-05 
0.010258 -0.003158 2.8e-05 
0.010255 -0.003155 3.7e-05 
0.010252 -0.003155 3.3e-05 
0.010258 -0.003155 3.6e-05 
0.010253 -0.003158 2.1e-05 
0.01025 -0.003156 2.9e-05 
0.010248 -0.003156 2.5e-05 
0.010253 -0.003156 2.8e-05 
0.010255 -0.003156 3.2e-05 
0.010257 -0.003158 2.4e-05 
0.01026 -0.003158 2.7e-05 
0.010255 -0.003158 2.5e-05 
0.010254 -0.003162 5e-06 
0.010252 -0.00316 9e-06 
0.010251 -0.00316 7e-06 
0.010254 -0.00316 8e-06 
0.010249 -0.003158 1.4e-05 
0.010246 -0.003156 2e-05 
0.010244 -0.003156 1.6e-05 
0.010249 -0.003156 1.8e-05 
0.010247 -0.003159 7e-06 
0.010243 -0.003156 1.1e-05 
0.010243 -0.003156 7e-06 
0.010247 -0.003156 9e-06 
0.010248 -0.003156 1.4e-05 
0.010251 -0.003159 9e-06 
0.010252 -0.003158 1.3e-05 
0.010248 -0.003158 1.1e-05 
0.010251 -0.003156 2.3e-05 
0.010253 -0.003158 1.7e-05 
0.010255 -0.003158 2e-05 
0.010251 -0.003158 1.8e-05 
0.010255 -0.00316 1.1e-05 
0.010256 -0.003162 6e-06 
0.010257 -0.003162 8e-06 
0.010255 -0.003162 7e-06 
0.010259 -0.00316 1.7e-05 
0.010259 -0.003161 1e-05 
0.010262 -0.003161 1.2e-05 
0.010259 -0.003161 1e-05 
0.010257 -0.003161 8e-06 
0.010255 -0.00316 1.4e-05 
0.010253 -0.00316 1.2e-05 
0.010257 -0.00316 1.4e-05 
0.010246 -0.003156 1e-06 
0.010248 -0.003158 3e-06 
0.010238 -0.003153 1e-06 
0.010242 -0.003156 3e-06 
0.010238 -0.003153 6e-06 
0.010232 -0.00315 9e-06 
0.010235 -0.00315 4e-06 
0.010238 -0.00315 6e-06 
0.010226 -0.003146 1.4e-05 
0.010219 -0.003141 1.9e-05 
0.010219 -0.003141 1.2e-05 
0.010226 -0.003141 1.6e-05 
0.010224 -0.003142 1e-06 
0.010228 -0.003145 5e-06 
0.010212 -0.003136 2e-06 
0.010218 -0.003141 5e-06 
0.010225 -0.003141 8e-06 
0.010232 -0.003146 1e-05 
0.010225 -0.003145 7e-06 
0.010212 -0.003137 2.6e-05 
0.010204 -0.003131 3.3e-05 
0.010203 -0.003131 2.3e-05 
0.010212 -0.003131 2.8e-05 
0.010195 -0.003126 4e-05 
0.010186 -0.00312 4.8e-05 
0.010185 -0.00312 3.7e-05 
0.010195 -0.00312 4.3e-05 
0.010193 -0.003126 1.9e-05 
0.010184 -0.00312 2.6e-05 
0.010184 -0.003119 1.6e-05 
0.010193 -0.00312 2.1e-05 
0.010194 -0.00312 3.2e-05 
0.010203 -0.003126 2.5e-05 
0.010204 -0.003126 3.5e-05 
0.010194 -0.003126 3e-05 
0.010191 -0.003121 2e-06 
0.010197 -0.003124 7e-06 
0.010175 -0.003112 2e-06 
0.010184 -0.003119 7e-06 
0.010193 -0.003119 1.1e-05 
0.010202 -0.003126 1.5e-05 
0.010193 -0.003125 1e-05 
0.010202 -0.003128 2e-06 
0.010218 -0.003137 5e-06 
0.010211 -0.003131 1.8e-05 
0.010219 -0.003137 1.3e-05 
0.010219 -0.003137 2.1e-05 
0.010211 -0.003137 1.7e-05 
0.010211 -0.003137 9e-06 
0.010202 -0.003131 1.4e-05 
0.010207 -0.003132 7e-06 
0.010211 -0.003132 9e-06 
0.010232 -0.003148 1e-06 
0.010242 -0.003153 3e-06 
0.010277 -0.003153 -3.4e-05 
0.010272 -0.003152 -4.4e-05 
0.010275 -0.00315 -4.7e-05 
0.010277 -0.003151 -4.8e-05 
0.010265 -0.00315 -5.3e-05 
0.010257 -0.003148 -6.1e-05 
0.010261 -0.003147 -6.5e-05 
0.010265 -0.003148 -6.6e-05 
0.010272 -0.003146 -5.9e-05 
0.010265 -0.003145 -6.9e-05 
0.010268 -0.003142 -7.2e-05 
0.010272 -0.003145 -7.4e-05 
0.010268 -0.003147 -7e-05 
0.010275 -0.003148 -6.1e-05 
0.010272 -0.00315 -5.7e-05 
0.010268 -0.003149 -5.6e-05 
0.010249 -0.003146 -6.8e-05 
0.01024 -0.003142 -7.4e-05 
0.010243 -0.003141 -8e-05 
0.010249 -0.003143 -7.9e-05 
0.010231 -0.003138 -7.9e-05 
0.01022 -0.003134 -8.2e-05 
0.010223 -0.003133 -9e-05 
0.010231 -0.003134 -8.8e-05 
0.010237 -0.003136 -9.2e-05 
0.010226 -0.003132 -9.7e-05 
0.010229 -0.003131 -0.000104 
0.010237 -0.003133 -0.000103 
0.010233 -0.003134 -9.5e-05 
0.010243 -0.003138 -9.1e-05 
0.01024 -0.003139 -8.4e-05 
0.010233 -0.003137 -8.6e-05 
0.010263 -0.003138 -8.5e-05 
0.010254 -0.003136 -9.5e-05 
0.010257 -0.003133 -9.9e-05 
0.010263 -0.003136 -0.0001 
0.010243 -0.003133 -0.000103 
0.010232 -0.003129 -0.000111 
0.010235 -0.003127 -0.000116 
0.010243 -0.00313 -0.000116 
0.01025 -0.003127 -0.000112 
0.010239 -0.003125 -0.000121 
0.010242 -0.003121 -0.000125 
0.01025 -0.003125 -0.000127 
0.010247 -0.003128 -0.000122 
0.010257 -0.003131 -0.000114 
0.010254 -0.003133 -0.000109 
0.010247 -0.00313 -0.000108 
0.01024 -0.003131 -0.00011 
0.01025 -0.003135 -0.000103 
0.010247 -0.003137 -9.7e-05 
0.01024 -0.003135 -9.8e-05 
0.01026 -0.003138 -9.6e-05 
0.010268 -0.00314 -8.7e-05 
0.010265 -0.003143 -8.3e-05 
0.01026 -0.00314 -8.2e-05 
0.010252 -0.003141 -8.5e-05 
0.010261 -0.003144 -7.8e-05 
0.010257 -0.003146 -7.3e-05 
0.010252 -0.003144 -7.3e-05 
0.010256 -0.003143 -7.8e-05 
0.010247 -0.00314 -8.6e-05 
0.01025 -0.003138 -9.1e-05 
0.010256 -0.00314 -9.1e-05 
0.01021 -0.003129 -8.5e-05 
0.010199 -0.003123 -8.6e-05 
0.010201 -0.003123 -9.5e-05 
0.01021 -0.003124 -9.2e-05 
0.010187 -0.003117 -8.6e-05 
0.010175 -0.003111 -8.5e-05 
0.010177 -0.003111 -9.6e-05 
0.010187 -0.003111 -9.1e-05 
0.010191 -0.003116 -0.000106 
0.010178 -0.00311 -0.000106 
0.01018 -0.00311 -0.000116 
0.010191 -0.003111 -0.000112 
0.010189 -0.003111 -0.000102 
0.010201 -0.003117 -0.000102 
0.010199 -0.003118 -9.2e-05 
0.010189 -0.003117 -9.6e-05 
0.010163 -0.003104 -8.3e-05 
0.010151 -0.003097 -7.9e-05 
0.010152 -0.003097 -9.1e-05 
0.010163 -0.003098 -8.6e-05 
0.010139 -0.00309 -7.5e-05 
0.010127 -0.003083 -7e-05 
0.010127 -0.003082 -8.3e-05 
0.010139 -0.003083 -7.6e-05 
0.01014 -0.00309 -0.0001 
0.010127 -0.003082 -9.5e-05 
0.010128 -0.003082 -0.000108 
0.01014 -0.003083 -0.000102 
0.010139 -0.003083 -8.9e-05 
0.010152 -0.00309 -9.4e-05 
0.010151 -0.00309 -8.2e-05 
0.010139 -0.00309 -8.7e-05 
0.010169 -0.003103 -0.000127 
0.010155 -0.003096 -0.000126 
0.010156 -0.003095 -0.000136 
0.010169 -0.003097 -0.000132 
0.010142 -0.003089 -0.000123 
0.010128 -0.003082 -0.00012 
0.010128 -0.003081 -0.000132 
0.010142 -0.003082 -0.000126 
0.010143 -0.003088 -0.000146 
0.010129 -0.003081 -0.000143 
0.010129 -0.00308 -0.000154 
0.010143 -0.003082 -0.000149 
0.010142 -0.003082 -0.000138 
0.010156 -0.003089 -0.000141 
0.010155 -0.00309 -0.00013 
0.010142 -0.003088 -0.000135 
0.010141 -0.003083 -0.000114 
0.010154 -0.00309 -0.000118 
0.010153 -0.00309 -0.000106 
0.010141 -0.003089 -0.000112 
0.010167 -0.003097 -0.000121 
0.01018 -0.003104 -0.000122 
0.010178 -0.003104 -0.000112 
0.010167 -0.003103 -0.000116 
0.010164 -0.003097 -9.8e-05 
0.010177 -0.003104 -0.0001 
0.010175 -0.003105 -8.9e-05 
0.010164 -0.003104 -9.4e-05 
0.010166 -0.003104 -0.000105 
0.010153 -0.003097 -0.000103 
0.010154 -0.003096 -0.000115 
0.010166 -0.003097 -0.000109 
0.010233 -0.003115 -0.000138 
0.01022 -0.003112 -0.000147 
0.010223 -0.003109 -0.000151 
0.010233 -0.003113 -0.000153 
0.010206 -0.003108 -0.000154 
0.010191 -0.003104 -0.000159 
0.010194 -0.003101 -0.000166 
0.010206 -0.003105 -0.000165 
0.010211 -0.003102 -0.000163 
0.010196 -0.003098 -0.000171 
0.010199 -0.003095 -0.000175 
0.010211 -0.0031 -0.000177 
0.010209 -0.003103 -0.000171 
0.010223 -0.003107 -0.000165 
0.01022 -0.003109 -0.00016 
0.010209 -0.003105 -0.000159 
0.010176 -0.003098 -0.000163 
0.010161 -0.003092 -0.000165 
0.010163 -0.003091 -0.000174 
0.010176 -0.003094 -0.000171 
0.010145 -0.003086 -0.000166 
0.01013 -0.003079 -0.000164 
0.010131 -0.003078 -0.000174 
0.010145 -0.00308 -0.000171 
0.010148 -0.003083 -0.000183 
0.010131 -0.003076 -0.000183 
0.010132 -0.003074 -0.000192 
0.010148 -0.003078 -0.000189 
0.010147 -0.003079 -0.00018 
0.010163 -0.003086 -0.000181 
0.010161 -0.003087 -0.000172 
0.010147 -0.003084 -0.000175 
0.010185 -0.003087 -0.000186 
0.010168 -0.003083 -0.000192 
0.01017 -0.003079 -0.000196 
0.010185 -0.003086 -0.000198 
0.010151 -0.003078 -0.000197 
0.010133 -0.003072 -0.000199 
0.010134 -0.00307 -0.000205 
0.010151 -0.003075 -0.000205 
0.010154 -0.003071 -0.000205 
0.010135 -0.003067 -0.00021 
0.010136 -0.003063 -0.000214 
0.010154 -0.00307 -0.000215 
0.010152 -0.003073 -0.000211 
0.01017 -0.003078 -0.000207 
0.010168 -0.003081 -0.000202 
0.010152 -0.003075 -0.000202 
0.010149 -0.003077 -0.000198 
0.010166 -0.003083 -0.000196 
0.010164 -0.003085 -0.000189 
0.010149 -0.003081 -0.000191 
0.010183 -0.003088 -0.000193 
0.010199 -0.003093 -0.000188 
0.010196 -0.003096 -0.000183 
0.010183 -0.003091 -0.000182 
0.010178 -0.003092 -0.00018 
0.010194 -0.003098 -0.000176 
0.010191 -0.0031 -0.000169 
0.010178 -0.003096 -0.00017 
0.01018 -0.003094 -0.000177 
0.010164 -0.003089 -0.000181 
0.010166 -0.003086 -0.000187 
0.01018 -0.003091 -0.000187 
0.010144 -0.003081 -0.00016 
0.010159 -0.003088 -0.000162 
0.010158 -0.003089 -0.000152 
0.010144 -0.003087 -0.000156 
0.010174 -0.003095 -0.000162 
0.010189 -0.003101 -0.000161 
0.010186 -0.003102 -0.000152 
0.010174 -0.0031 -0.000155 
0.01017 -0.003096 -0.000143 
0.010184 -0.003103 -0.000143 
0.010182 -0.003104 -0.000133 
0.01017 -0.003102 -0.000137 
0.010172 -0.003101 -0.000146 
0.010158 -0.003095 -0.000147 
0.010159 -0.003094 -0.000156 
0.010172 -0.003096 -0.000153 
0.010203 -0.003107 -0.000158 
0.010217 -0.003112 -0.000153 
0.010214 -0.003113 -0.000146 
0.010203 -0.003111 -0.000148 
0.01023 -0.003116 -0.000147 
0.010242 -0.003119 -0.00014 
0.010239 -0.003122 -0.000135 
0.01023 -0.003119 -0.000134 
0.010223 -0.00312 -0.000134 
0.010235 -0.003124 -0.000129 
0.010232 -0.003126 -0.000122 
0.010223 -0.003123 -0.000123 
0.010227 -0.003121 -0.000129 
0.010214 -0.003117 -0.000135 
0.010217 -0.003115 -0.000142 
0.010227 -0.003118 -0.000141 
0.010193 -0.003111 -0.000123 
0.010205 -0.003117 -0.000121 
0.010203 -0.003117 -0.000112 
0.010193 -0.003116 -0.000115 
0.010217 -0.003122 -0.000119 
0.010229 -0.003127 -0.000115 
0.010226 -0.003128 -0.000107 
0.010217 -0.003126 -0.000109 
0.010212 -0.003123 -0.000101 
0.010223 -0.003129 -9.9e-05 
0.01022 -0.003129 -9e-05 
0.010212 -0.003128 -9.3e-05 
0.010215 -0.003127 -0.000102 
0.010203 -0.003122 -0.000104 
0.010205 -0.003121 -0.000113 
0.010215 -0.003123 -0.00011 
0.01022 -0.003125 -0.000116 
0.010208 -0.00312 -0.000121 
0.010211 -0.003119 -0.000129 
0.01022 -0.003121 -0.000127 
0.010195 -0.003115 -0.000124 
0.010182 -0.003109 -0.000126 
0.010184 -0.003108 -0.000135 
0.010195 -0.00311 -0.000132 
0.0102 -0.003112 -0.000141 
0.010186 -0.003107 -0.000144 
0.010189 -0.003105 -0.000152 
0.0102 -0.003108 -0.00015 
0.010198 -0.003109 -0.000141 
0.010211 -0.003115 -0.000139 
0.010208 -0.003116 -0.00013 
0.010198 -0.003114 -0.000133 
0.010115 -0.003075 -6.4e-05 
0.010103 -0.003068 -5.7e-05 
0.010103 -0.003068 -7e-05 
0.010115 -0.003068 -6.4e-05 
0.010091 -0.00306 -5e-05 
0.01008 -0.003053 -4.3e-05 
0.01008 -0.003053 -5.6e-05 
0.010091 -0.003053 -4.9e-05 
0.01009 -0.00306 -7.6e-05 
0.010079 -0.003052 -6.9e-05 
0.010078 -0.003052 -8.1e-05 
0.01009 -0.003053 -7.5e-05 
0.010091 -0.003053 -6.2e-05 
0.010103 -0.00306 -7e-05 
0.010103 -0.00306 -5.7e-05 
0.010091 -0.00306 -6.3e-05 
0.01007 -0.003046 -3.6e-05 
0.010059 -0.003039 -2.8e-05 
0.010058 -0.003039 -4e-05 
0.01007 -0.003039 -3.4e-05 
0.01005 -0.003033 -2.1e-05 
0.010041 -0.003026 -1.5e-05 
0.01004 -0.003026 -2.5e-05 
0.01005 -0.003026 -2e-05 
0.010048 -0.003032 -4.3e-05 
0.010039 -0.003026 -3.5e-05 
0.010037 -0.003025 -4.6e-05 
0.010048 -0.003026 -4e-05 
0.010049 -0.003026 -3e-05 
0.010058 -0.003032 -3.8e-05 
0.010059 -0.003033 -2.7e-05 
0.010049 -0.003032 -3.2e-05 
0.010065 -0.003044 -8.5e-05 
0.010054 -0.003038 -7.6e-05 
0.010052 -0.003037 -8.7e-05 
0.010065 -0.003038 -8.2e-05 
0.010044 -0.003031 -6.6e-05 
0.010035 -0.003025 -5.6e-05 
0.010032 -0.003024 -6.6e-05 
0.010044 -0.003025 -6.1e-05 
0.010039 -0.003029 -8.8e-05 
0.01003 -0.003023 -7.7e-05 
0.010026 -0.003022 -8.7e-05 
0.010039 -0.003023 -8.2e-05 
0.010042 -0.003024 -7.2e-05 
0.010052 -0.003031 -8.3e-05 
0.010054 -0.003031 -7.1e-05 
0.010042 -0.00303 -7.7e-05 
0.010046 -0.003025 -5.1e-05 
0.010056 -0.003032 -6e-05 
0.010057 -0.003032 -4.9e-05 
0.010046 -0.003031 -5.5e-05 
0.010067 -0.003038 -7e-05 
0.010078 -0.003045 -7.9e-05 
0.010079 -0.003045 -6.7e-05 
0.010067 -0.003045 -7.3e-05 
0.010069 -0.003039 -4.6e-05 
0.01008 -0.003046 -5.4e-05 
0.01008 -0.003046 -4.2e-05 
0.010069 -0.003046 -4.8e-05 
0.010068 -0.003045 -6e-05 
0.010057 -0.003038 -5.2e-05 
0.010056 -0.003038 -6.4e-05 
0.010068 -0.003039 -5.8e-05 
0.010033 -0.003021 -9e-06 
0.010024 -0.003015 -1.2e-05 
0.010032 -0.003016 -8e-06 
0.010025 -0.003014 -1e-06 
0.010013 -0.003007 -3e-06 
0.010017 -0.003011 -1.3e-05 
0.010012 -0.003007 -8e-06 
0.010011 -0.003007 -1.3e-05 
0.010017 -0.003007 -1.1e-05 
0.010018 -0.003007 -6e-06 
0.010024 -0.003011 -1e-05 
0.010021 -0.003011 -5e-06 
0.010018 -0.003011 -7e-06 
0.010006 -0.003002 -0.0 
0.010005 -0.003004 -1.2e-05 
0.010004 -0.003002 -6e-06 
0.010001 -0.003001 -8e-06 
0.010005 -0.003002 -7e-06 
0.010003 -0.003001 -2e-06 
0.010001 -0.003 -3e-06 
0.010001 -0.003 -3e-06 
0.010004 -0.003001 -2e-06 
0.010007 -0.003003 -5e-06 
0.010004 -0.003001 -1e-06 
0.010005 -0.003002 -1e-06 
0.010011 -0.003004 -1e-05 
0.010012 -0.003005 -6e-06 
0.010007 -0.003004 -8e-06 
0.010009 -0.003004 -1e-06 
0.010007 -0.003003 -2e-06 
0.010017 -0.003008 -1e-06 
0.010013 -0.003005 -3e-06 
0.010009 -0.003005 -4e-06 
0.010005 -0.003002 -4e-06 
0.010008 -0.003003 -2e-06 
0.010013 -0.003015 -8.4e-05 
0.010005 -0.00301 -7e-05 
0.01 -0.003008 -7.9e-05 
0.010013 -0.00301 -7.4e-05 
0.009999 -0.003005 -5.6e-05 
0.009994 -0.003002 -4.2e-05 
0.009988 -0.003 -4.8e-05 
0.009999 -0.003002 -4.5e-05 
0.009987 -0.003002 -7e-05 
0.009982 -0.002998 -5.4e-05 
0.009975 -0.002996 -5.9e-05 
0.009987 -0.002999 -5.6e-05 
0.009993 -0.003 -5e-05 
0.01 -0.003004 -6.7e-05 
0.010005 -0.003006 -5.9e-05 
0.009993 -0.003004 -6.3e-05 
0.009991 -0.002999 -2.9e-05 
0.00999 -0.002998 -1.7e-05 
0.009984 -0.002996 -1.9e-05 
0.00999 -0.002998 -1.6e-05 
0.009992 -0.002998 -4e-06 
0.009979 -0.002993 -8e-06 
0.009977 -0.002994 -5e-06 
0.009986 -0.002995 -6e-06 
0.009962 -0.002991 -4.5e-05 
0.009989 -0.002998 -5e-06 
0.009984 -0.002996 -5e-06 
0.00996 -0.002989 -2.6e-05 
0.00995 -0.002986 -2.9e-05 
0.009962 -0.002989 -2.7e-05 
0.009961 -0.002988 -9e-06 
0.00995 -0.002985 -1e-05 
0.00995 -0.002985 -1e-05 
0.00996 -0.002989 -8e-06 
0.009969 -0.002991 -6e-06 
0.00997 -0.002991 -9e-06 
0.009971 -0.002992 -2.4e-05 
0.009975 -0.002994 -4.3e-05 
0.009982 -0.002996 -3.8e-05 
0.009971 -0.002993 -4.1e-05 
0.009985 -0.002996 -1.9e-05 
0.009988 -0.002998 -3.4e-05 
0.009994 -0.002999 -3e-05 
0.009985 -0.002997 -3.3e-05 
0.009978 -0.002995 -3.7e-05 
0.009977 -0.002994 -2.1e-05 
0.009969 -0.002991 -2.4e-05 
0.009978 -0.002994 -2.1e-05 
0.009994 -0.002998 -6e-06 
0.009998 -0.002999 -4e-06 
0.009995 -0.002999 -1.5e-05 
0.009997 -0.002999 -3e-06 
0.009998 -0.003001 -2.6e-05 
0.010003 -0.003002 -2.2e-05 
0.009996 -0.003001 -2.4e-05 
0.010003 -0.003001 -1e-05 
0.010006 -0.003003 -1.8e-05 
0.010009 -0.003004 -1.4e-05 
0.010003 -0.003003 -1.6e-05 
0.009999 -0.003002 -2e-05 
0.009997 -0.003 -1.1e-05 
0.009993 -0.002999 -1.3e-05 
0.009999 -0.003 -1.2e-05 
0.010003 -0.003003 -3.9e-05 
0.01001 -0.003007 -5.2e-05 
0.010013 -0.003008 -4.5e-05 
0.010003 -0.003007 -4.9e-05 
0.010017 -0.003011 -6.6e-05 
0.010026 -0.003017 -7.9e-05 
0.01003 -0.003018 -7e-05 
0.010017 -0.003016 -7.5e-05 
0.010024 -0.003013 -4.9e-05 
0.010032 -0.003018 -6e-05 
0.010035 -0.003019 -5.1e-05 
0.010024 -0.003018 -5.6e-05 
0.010021 -0.003017 -6.5e-05 
0.010013 -0.003012 -5.3e-05 
0.01001 -0.003011 -6.2e-05 
0.010021 -0.003012 -5.7e-05 
0.010016 -0.003007 -1.6e-05 
0.010022 -0.00301 -2.4e-05 
0.010023 -0.003011 -1.7e-05 
0.010016 -0.00301 -2e-05 
0.010029 -0.003015 -3.2e-05 
0.010037 -0.00302 -4.1e-05 
0.010039 -0.00302 -3.2e-05 
0.010029 -0.00302 -3.7e-05 
0.010032 -0.003015 -1.6e-05 
0.01004 -0.003021 -2.2e-05 
0.010041 -0.003021 -1.4e-05 
0.010032 -0.003021 -1.8e-05 
0.01003 -0.00302 -2.7e-05 
0.010023 -0.003015 -2e-05 
0.010022 -0.003015 -2.8e-05 
0.01003 -0.003015 -2.4e-05 
0.010027 -0.003019 -4.6e-05 
0.01002 -0.003014 -3.7e-05 
0.010017 -0.003013 -4.5e-05 
0.010027 -0.003014 -4.1e-05 
0.010014 -0.00301 -2.7e-05 
0.010009 -0.003006 -1.9e-05 
0.010006 -0.003005 -2.5e-05 
0.010014 -0.003006 -2.2e-05 
0.010007 -0.003008 -4.2e-05 
0.010003 -0.003004 -3e-05 
0.009998 -0.003003 -3.6e-05 
0.010007 -0.003004 -3.3e-05 
0.010011 -0.003006 -2.8e-05 
0.010017 -0.003009 -3.8e-05 
0.01002 -0.00301 -3.1e-05 
0.010011 -0.003009 -3.5e-05 
0.010117 -0.003055 -0.000221 
0.010096 -0.003049 -0.000223 
0.010096 -0.003046 -0.000226 
0.010117 -0.003054 -0.000228 
0.010076 -0.003043 -0.000223 
0.010055 -0.003036 -0.000219 
0.010053 -0.003034 -0.000225 
0.010076 -0.00304 -0.000224 
0.010074 -0.003037 -0.00023 
0.010051 -0.003031 -0.000229 
0.01005 -0.003027 -0.000232 
0.010074 -0.003036 -0.000233 
0.010075 -0.003038 -0.000229 
0.010096 -0.003045 -0.000231 
0.010096 -0.003047 -0.000227 
0.010075 -0.00304 -0.000227 
0.010035 -0.003029 -0.000212 
0.010016 -0.003022 -0.000203 
0.010012 -0.003019 -0.00021 
0.010035 -0.003025 -0.000207 
0.009997 -0.003014 -0.00019 
0.00998 -0.003007 -0.000175 
0.009974 -0.003004 -0.000183 
0.009997 -0.00301 -0.000179 
0.009987 -0.003009 -0.000205 
0.009967 -0.003001 -0.00019 
0.00996 -0.002999 -0.000197 
0.009987 -0.003006 -0.000194 
0.009992 -0.003008 -0.000187 
0.010012 -0.003016 -0.000202 
0.010016 -0.003018 -0.000195 
0.009992 -0.003012 -0.000198 
0.010024 -0.003017 -0.000232 
0.009999 -0.003011 -0.000226 
0.009996 -0.003007 -0.000229 
0.010024 -0.003017 -0.00023 
0.009976 -0.003003 -0.000217 
0.009953 -0.002996 -0.000203 
0.009946 -0.002992 -0.000208 
0.009976 -0.003001 -0.000207 
0.009965 -0.002996 -0.000224 
0.00994 -0.002989 -0.000212 
0.009933 -0.002985 -0.000215 
0.009965 -0.002996 -0.000215 
0.009971 -0.002999 -0.000211 
0.009996 -0.003007 -0.000224 
0.009999 -0.003009 -0.00022 
0.009971 -0.003 -0.000221 
0.009981 -0.003003 -0.000201 
0.010003 -0.003011 -0.000215 
0.010007 -0.003014 -0.000209 
0.009981 -0.003006 -0.000212 
0.010026 -0.003019 -0.000226 
0.01005 -0.003027 -0.000233 
0.010051 -0.003029 -0.000229 
0.010026 -0.003021 -0.000229 
0.010032 -0.003024 -0.000215 
0.010053 -0.003031 -0.000224 
0.010055 -0.003033 -0.000217 
0.010032 -0.003027 -0.000219 
0.010029 -0.003024 -0.000225 
0.010007 -0.003017 -0.000217 
0.010003 -0.003014 -0.000222 
0.010029 -0.003021 -0.000221 
0.009965 -0.003 -0.000156 
0.009951 -0.002993 -0.000136 
0.009942 -0.00299 -0.000143 
0.009965 -0.002996 -0.000139 
0.009939 -0.002987 -0.000113 
0.009929 -0.002982 -8.8e-05 
0.009918 -0.002979 -9.4e-05 
0.009939 -0.002984 -9.1e-05 
0.009918 -0.002981 -0.000126 
0.009906 -0.002975 -9.9e-05 
0.009894 -0.002971 -0.000105 
0.009918 -0.002978 -0.000102 
0.009929 -0.002981 -9.6e-05 
0.009942 -0.002987 -0.000123 
0.009951 -0.002989 -0.000116 
0.009929 -0.002984 -0.00012 
0.009923 -0.002978 -6.3e-05 
0.009921 -0.002977 -3.9e-05 
0.009907 -0.002972 -4.1e-05 
0.009922 -0.002978 -3.6e-05 
0.009924 -0.002978 -1e-05 
0.009892 -0.002966 -1.7e-05 
0.009892 -0.00297 -1.1e-05 
0.009906 -0.002974 -9e-06 
0.009918 -0.002978 -1.1e-05 
0.009869 -0.002962 -7.9e-05 
0.009909 -0.002971 -1.5e-05 
0.00986 -0.002958 -4.7e-05 
0.009843 -0.002953 -4.9e-05 
0.009869 -0.002962 -4.8e-05 
0.009836 -0.00295 -1.7e-05 
0.009844 -0.002953 -2e-05 
0.00986 -0.00296 -1.6e-05 
0.009856 -0.002955 -1.7e-05 
0.009877 -0.002965 -1.3e-05 
0.009875 -0.002961 -1.7e-05 
0.009883 -0.002966 -4.5e-05 
0.009894 -0.002969 -7.6e-05 
0.009906 -0.002973 -7.2e-05 
0.009883 -0.002967 -7.5e-05 
0.00991 -0.002974 -3.8e-05 
0.009918 -0.002977 -6.8e-05 
0.009929 -0.00298 -6.4e-05 
0.00991 -0.002975 -6.7e-05 
0.009897 -0.002971 -7.1e-05 
0.009892 -0.002968 -4.3e-05 
0.009877 -0.002963 -4.5e-05 
0.009897 -0.00297 -4.1e-05 
0.009898 -0.002973 -0.000202 
0.009871 -0.002965 -0.000183 
0.009861 -0.002961 -0.000186 
0.009898 -0.002973 -0.000185 
0.009846 -0.002957 -0.000158 
0.009824 -0.002949 -0.000128 
0.009809 -0.002944 -0.000131 
0.009846 -0.002956 -0.000129 
0.00982 -0.002948 -0.000164 
0.009793 -0.002939 -0.000134 
0.009777 -0.002934 -0.000136 
0.00982 -0.002948 -0.000135 
0.009833 -0.002952 -0.000133 
0.009861 -0.002961 -0.000163 
0.009871 -0.002964 -0.00016 
0.009833 -0.002953 -0.000161 
0.009806 -0.002942 -9.5e-05 
0.009795 -0.002937 -6.1e-05 
0.009774 -0.002931 -6.2e-05 
0.009806 -0.002944 -5.3e-05 
0.009809 -0.002947 -1.3e-05 
0.009794 -0.002941 -1.1e-05 
0.009743 -0.002919 -2.6e-05 
0.009732 -0.00292 -0.000102 
0.009768 -0.002927 -2.6e-05 
0.009774 -0.002936 -1.3e-05 
0.009708 -0.002911 -6.2e-05 
0.009686 -0.002905 -6.1e-05 
0.009732 -0.002921 -6.7e-05 
0.009662 -0.002895 -1.9e-05 
0.009686 -0.002906 -3.3e-05 
0.009708 -0.002916 -2.5e-05 
0.00969 -0.002903 -2.2e-05 
0.009717 -0.002911 -2.4e-05 
0.009731 -0.002923 -2e-05 
0.009753 -0.00293 -1.6e-05 
0.009751 -0.002927 -6.3e-05 
0.009777 -0.002935 -0.000103 
0.009793 -0.00294 -0.0001 
0.009751 -0.002925 -0.000101 
0.009788 -0.002939 -5.6e-05 
0.009809 -0.002944 -9.7e-05 
0.009824 -0.002949 -9.3e-05 
0.009788 -0.002937 -9.7e-05 
0.00977 -0.002931 -0.0001 
0.009753 -0.002924 -6.2e-05 
0.009731 -0.002918 -6.3e-05 
0.00977 -0.002933 -5.9e-05 
0.009792 -0.002936 -2.6e-05 
0.009829 -0.002948 -2.9e-05 
0.009822 -0.002949 -5.2e-05 
0.009814 -0.002944 -1.6e-05 
0.009839 -0.002953 -9e-05 
0.009853 -0.002957 -8.7e-05 
0.009823 -0.002948 -9.2e-05 
0.009854 -0.002957 -5.2e-05 
0.009867 -0.002962 -8.5e-05 
0.009881 -0.002966 -8.1e-05 
0.009853 -0.002958 -8.3e-05 
0.009839 -0.002953 -8.7e-05 
0.009826 -0.002949 -5e-05 
0.009816 -0.002944 -6e-05 
0.009839 -0.002953 -5.4e-05 
0.009859 -0.00296 -0.000125 
0.009882 -0.002968 -0.000156 
0.009892 -0.002971 -0.000152 
0.009859 -0.002961 -0.000154 
0.009906 -0.002976 -0.000182 
0.009933 -0.002985 -0.000202 
0.00994 -0.002988 -0.000199 
0.009906 -0.002977 -0.0002 
0.009924 -0.002982 -0.000172 
0.009946 -0.00299 -0.000194 
0.009953 -0.002993 -0.000189 
0.009924 -0.002984 -0.000191 
0.009915 -0.002981 -0.000196 
0.009892 -0.002973 -0.000175 
0.009882 -0.002969 -0.000179 
0.009915 -0.002979 -0.000177 
0.009907 -0.002975 -0.000107 
0.009923 -0.002981 -0.000135 
0.009933 -0.002984 -0.000129 
0.009907 -0.002977 -0.000133 
0.009941 -0.002988 -0.000161 
0.00996 -0.002996 -0.000183 
0.009967 -0.002998 -0.000176 
0.009941 -0.002991 -0.000179 
0.009957 -0.002993 -0.000147 
0.009974 -0.003 -0.000168 
0.00998 -0.003002 -0.000161 
0.009957 -0.002997 -0.000164 
0.009949 -0.002994 -0.000172 
0.009933 -0.002987 -0.000151 
0.009923 -0.002984 -0.000157 
0.009949 -0.002991 -0.000154 
0.009932 -0.002988 -0.000185 
0.009913 -0.00298 -0.000164 
0.009903 -0.002977 -0.00017 
0.009932 -0.002985 -0.000167 
0.009896 -0.002974 -0.000138 
0.009881 -0.002967 -0.00011 
0.009868 -0.002963 -0.000115 
0.009896 -0.002971 -0.000112 
0.009871 -0.002966 -0.000149 
0.009853 -0.002959 -0.000119 
0.009839 -0.002954 -0.000124 
0.009871 -0.002964 -0.000121 
0.009884 -0.002967 -0.000117 
0.009903 -0.002974 -0.000147 
0.009913 -0.002978 -0.000141 
0.009884 -0.00297 -0.000144 
0.00993 -0.002978 -1.7e-05 
0.00994 -0.002981 -1.2e-05 
0.009934 -0.002981 -3.6e-05 
0.009937 -0.002981 -1e-05 
0.00994 -0.002983 -6e-05 
0.00995 -0.002986 -5.6e-05 
0.009934 -0.002982 -5.8e-05 
0.009953 -0.002986 -3e-05 
0.009958 -0.002989 -5.2e-05 
0.009967 -0.002991 -4.7e-05 
0.009953 -0.002988 -5e-05 
0.009943 -0.002985 -5.4e-05 
0.009939 -0.002983 -3.1e-05 
0.009928 -0.00298 -3.3e-05 
0.009944 -0.002983 -3.4e-05 
0.009948 -0.002987 -8.5e-05 
0.009959 -0.002992 -0.000109 
0.009967 -0.002994 -0.000102 
0.009948 -0.00299 -0.000106 
0.009972 -0.002998 -0.000132 
0.009987 -0.003005 -0.000152 
0.009993 -0.003006 -0.000144 
0.009972 -0.003002 -0.000148 
0.009986 -0.003002 -0.000116 
0.009999 -0.003008 -0.000135 
0.010004 -0.00301 -0.000126 
0.009986 -0.003007 -0.00013 
0.009979 -0.003004 -0.000139 
0.009967 -0.002998 -0.00012 
0.009959 -0.002996 -0.000128 
0.009979 -0.003 -0.000124 
0.009981 -0.002997 -6.2e-05 
0.009989 -0.003001 -8.1e-05 
0.009995 -0.003003 -7.4e-05 
0.009981 -0.003 -7.8e-05 
0.009998 -0.003006 -9.9e-05 
0.010009 -0.003012 -0.000117 
0.010014 -0.003013 -0.000108 
0.009998 -0.003011 -0.000112 
0.010009 -0.003009 -8.3e-05 
0.010018 -0.003014 -9.8e-05 
0.010023 -0.003016 -8.9e-05 
0.010009 -0.003014 -9.4e-05 
0.010004 -0.003012 -0.000103 
0.009995 -0.003007 -8.7e-05 
0.009989 -0.003005 -9.5e-05 
0.010004 -0.003007 -9.1e-05 
0.009992 -0.003009 -0.000121 
0.009982 -0.003003 -0.000104 
0.009975 -0.003001 -0.000112 
0.009992 -0.003004 -0.000108 
0.009974 -0.002998 -8.5e-05 
0.009967 -0.002994 -6.5e-05 
0.009958 -0.002991 -7.1e-05 
0.009974 -0.002995 -6.8e-05 
0.009957 -0.002993 -9.9e-05 
0.009949 -0.002989 -7.6e-05 
0.00994 -0.002985 -8.2e-05 
0.009957 -0.00299 -7.9e-05 
0.009966 -0.002992 -7.4e-05 
0.009975 -0.002997 -9.5e-05 
0.009982 -0.002999 -8.8e-05 
0.009966 -0.002996 -9.2e-05 
0.010003 -0.003012 -0.000171 
0.01002 -0.003019 -0.000186 
0.010024 -0.003021 -0.000177 
0.010003 -0.003016 -0.000181 
0.010038 -0.003027 -0.000199 
0.010057 -0.003035 -0.00021 
0.010059 -0.003036 -0.000201 
0.010038 -0.003031 -0.000205 
0.010044 -0.00303 -0.000181 
0.010061 -0.003038 -0.000192 
0.010063 -0.003039 -0.000182 
0.010044 -0.003035 -0.000187 
0.010041 -0.003033 -0.000196 
0.010024 -0.003026 -0.000185 
0.01002 -0.003024 -0.000194 
0.010041 -0.003029 -0.00019 
0.010077 -0.003042 -0.000217 
0.010096 -0.00305 -0.000222 
0.010097 -0.003051 -0.000215 
0.010077 -0.003046 -0.000217 
0.010116 -0.003056 -0.000223 
0.010136 -0.003062 -0.000222 
0.010135 -0.003065 -0.000218 
0.010116 -0.003058 -0.000217 
0.010115 -0.00306 -0.000211 
0.010134 -0.003067 -0.000212 
0.010133 -0.003069 -0.000205 
0.010115 -0.003064 -0.000206 
0.010116 -0.003061 -0.000213 
0.010097 -0.003055 -0.000212 
0.010096 -0.003052 -0.000218 
0.010116 -0.003058 -0.000218 
0.010081 -0.003048 -0.000181 
0.010098 -0.003055 -0.000189 
0.010098 -0.003056 -0.000178 
0.010081 -0.003053 -0.000183 
0.010115 -0.003063 -0.000194 
0.010132 -0.00307 -0.000197 
0.010131 -0.003071 -0.000188 
0.010115 -0.003068 -0.000191 
0.010115 -0.003065 -0.000174 
0.010131 -0.003072 -0.000178 
0.01013 -0.003073 -0.000168 
0.010115 -0.003071 -0.000172 
0.010115 -0.003069 -0.000182 
0.010098 -0.003062 -0.000178 
0.010098 -0.003061 -0.000188 
0.010115 -0.003064 -0.000184 
0.010115 -0.003066 -0.000199 
0.010098 -0.003059 -0.000197 
0.010097 -0.003057 -0.000205 
0.010115 -0.003062 -0.000203 
0.01008 -0.003052 -0.000193 
0.010063 -0.003044 -0.000186 
0.010061 -0.003043 -0.000195 
0.01008 -0.003047 -0.000191 
0.010078 -0.003048 -0.00021 
0.010059 -0.003041 -0.000204 
0.010057 -0.003039 -0.000212 
0.010078 -0.003044 -0.000209 
0.010079 -0.003045 -0.000201 
0.010097 -0.003053 -0.000207 
0.010098 -0.003054 -0.000198 
0.010079 -0.00305 -0.000201 
0.010036 -0.003023 -9.2e-05 
0.010047 -0.003029 -0.000105 
0.01005 -0.00303 -9.4e-05 
0.010036 -0.003029 -9.9e-05 
0.01006 -0.003036 -0.000116 
0.010072 -0.003043 -0.000127 
0.010074 -0.003044 -0.000115 
0.01006 -0.003043 -0.000121 
0.010063 -0.003037 -9.3e-05 
0.010075 -0.003044 -0.000103 
0.010077 -0.003045 -9.1e-05 
0.010063 -0.003044 -9.7e-05 
0.010062 -0.003043 -0.000109 
0.01005 -0.003036 -9.9e-05 
0.010047 -0.003035 -0.000111 
0.010062 -0.003037 -0.000105 
0.010086 -0.003051 -0.000137 
0.0101 -0.003059 -0.000145 
0.010101 -0.003059 -0.000133 
0.010086 -0.003057 -0.000139 
0.010115 -0.003066 -0.000151 
0.010129 -0.003074 -0.000157 
0.010129 -0.003074 -0.000145 
0.010115 -0.003072 -0.00015 
0.010115 -0.003067 -0.000128 
0.010128 -0.003075 -0.000133 
0.010128 -0.003075 -0.000121 
0.010115 -0.003074 -0.000127 
0.010115 -0.003073 -0.000139 
0.010101 -0.003066 -0.000133 
0.0101 -0.003065 -0.000145 
0.010115 -0.003067 -0.00014 
0.01009 -0.003052 -8.8e-05 
0.010102 -0.00306 -9.6e-05 
0.010102 -0.00306 -8.3e-05 
0.01009 -0.00306 -8.9e-05 
0.010115 -0.003067 -0.000103 
0.010128 -0.003075 -0.000109 
0.010127 -0.003075 -9.6e-05 
0.010115 -0.003075 -0.000102 
0.010115 -0.003068 -7.7e-05 
0.010127 -0.003075 -8.4e-05 
0.010127 -0.003075 -7.1e-05 
0.010115 -0.003075 -7.7e-05 
0.010115 -0.003075 -9e-05 
0.010102 -0.003067 -8.3e-05 
0.010102 -0.003067 -9.6e-05 
0.010115 -0.003068 -9e-05 
0.010115 -0.003074 -0.000115 
0.010102 -0.003067 -0.000109 
0.010101 -0.003066 -0.000121 
0.010115 -0.003067 -0.000115 
0.010089 -0.003059 -0.000102 
0.010077 -0.003052 -9.4e-05 
0.010075 -0.003051 -0.000106 
0.010089 -0.003052 -0.0001 
0.010087 -0.003058 -0.000126 
0.010074 -0.003051 -0.000118 
0.010072 -0.00305 -0.00013 
0.010087 -0.003051 -0.000125 
0.010088 -0.003052 -0.000112 
0.010101 -0.003059 -0.000121 
0.010102 -0.00306 -0.000108 
0.010088 -0.003059 -0.000114 
0.010115 -0.003072 -0.000161 
0.0101 -0.003064 -0.000157 
0.010099 -0.003063 -0.000168 
0.010115 -0.003066 -0.000163 
0.010085 -0.003057 -0.00015 
0.010071 -0.003049 -0.000142 
0.010069 -0.003048 -0.000154 
0.010085 -0.00305 -0.000148 
0.010083 -0.003055 -0.000172 
0.010067 -0.003047 -0.000165 
0.010065 -0.003046 -0.000176 
0.010083 -0.003049 -0.000171 
0.010084 -0.00305 -0.00016 
0.010099 -0.003057 -0.000168 
0.0101 -0.003058 -0.000156 
0.010084 -0.003056 -0.000162 
0.010057 -0.003042 -0.000133 
0.010045 -0.003034 -0.000122 
0.010042 -0.003033 -0.000133 
0.010057 -0.003035 -0.000128 
0.010033 -0.003028 -0.00011 
0.010023 -0.003021 -9.8e-05 
0.010018 -0.00302 -0.000108 
0.010033 -0.003022 -0.000103 
0.010026 -0.003025 -0.000132 
0.010014 -0.003018 -0.000118 
0.010009 -0.003017 -0.000128 
0.010026 -0.003019 -0.000123 
0.01003 -0.003021 -0.000113 
0.010042 -0.003027 -0.000127 
0.010045 -0.003028 -0.000116 
0.01003 -0.003026 -0.000121 
0.010047 -0.003037 -0.000177 
0.010032 -0.003029 -0.000166 
0.010028 -0.003028 -0.000176 
0.010047 -0.003031 -0.000171 
0.010017 -0.003022 -0.000153 
0.010004 -0.003015 -0.000138 
0.009999 -0.003013 -0.000148 
0.010017 -0.003017 -0.000143 
0.010008 -0.003018 -0.000172 
0.009993 -0.003011 -0.000157 
0.009987 -0.003009 -0.000166 
0.010008 -0.003014 -0.000162 
0.010013 -0.003015 -0.000152 
0.010028 -0.003022 -0.000168 
0.010032 -0.003024 -0.000158 
0.010013 -0.00302 -0.000163 
0.010022 -0.003018 -0.000133 
0.010035 -0.003025 -0.000148 
0.010039 -0.003026 -0.000137 
0.010022 -0.003024 -0.000142 
0.01005 -0.003032 -0.000161 
0.010065 -0.00304 -0.000172 
0.010067 -0.003041 -0.000161 
0.01005 -0.003038 -0.000166 
0.010055 -0.003034 -0.000139 
0.010069 -0.003042 -0.00015 
0.010071 -0.003043 -0.000139 
0.010055 -0.003041 -0.000144 
0.010052 -0.003039 -0.000156 
0.010039 -0.003032 -0.000144 
0.010035 -0.003031 -0.000155 
0.010052 -0.003034 -0.00015 
0.010034 -0.00302 -2e-06 
0.010029 -0.003017 -6e-06 
0.010048 -0.003028 -2e-06 
0.010041 -0.003021 -6e-06 
0.01005 -0.003026 -1.1e-05 
0.01006 -0.003033 -1.6e-05 
0.010054 -0.003032 -8e-06 
0.01005 -0.003032 -1.1e-05 
0.01007 -0.003039 -2.2e-05 
0.010081 -0.003046 -2.9e-05 
0.010081 -0.003047 -1.8e-05 
0.01007 -0.003046 -2.3e-05 
0.010072 -0.003045 -2e-06 
0.010066 -0.003041 -8e-06 
0.01009 -0.003054 -2e-06 
0.010081 -0.003047 -7e-06 
0.010071 -0.003047 -1.2e-05 
0.01006 -0.003039 -1.7e-05 
0.01007 -0.00304 -1.1e-05 
0.010092 -0.003053 -3.7e-05 
0.010103 -0.00306 -4.4e-05 
0.010103 -0.003061 -3.1e-05 
0.010092 -0.00306 -3.7e-05 
0.010115 -0.003068 -5.1e-05 
0.010127 -0.003075 -5.8e-05 
0.010127 -0.003075 -4.4e-05 
0.010115 -0.003075 -5.1e-05 
0.010115 -0.003068 -2.5e-05 
0.010126 -0.003075 -3.1e-05 
0.010126 -0.003076 -1.9e-05 
0.010115 -0.003075 -2.5e-05 
0.010115 -0.003075 -3.8e-05 
0.010103 -0.003068 -3.1e-05 
0.010103 -0.003068 -4.4e-05 
0.010115 -0.003068 -3.8e-05 
0.010117 -0.003074 -2e-06 
0.01011 -0.003069 -9e-06 
0.010135 -0.003084 -2e-06 
0.010126 -0.003076 -8e-06 
0.010115 -0.003076 -1.3e-05 
0.010103 -0.003068 -1.9e-05 
0.010115 -0.003069 -1.3e-05 
0.010104 -0.003064 -3e-06 
0.010081 -0.003053 -7e-06 
0.010092 -0.003061 -2.4e-05 
0.010081 -0.003053 -1.9e-05 
0.010081 -0.003053 -3e-05 
0.010092 -0.003053 -2.4e-05 
0.010092 -0.003053 -1.3e-05 
0.010103 -0.003061 -1.8e-05 
0.010097 -0.003059 -9e-06 
0.010092 -0.00306 -1.3e-05 
0.01006 -0.003036 -2e-06 
0.010041 -0.003026 -6e-06 
0.010139 -0.003083 -6.4e-05 
0.01015 -0.00309 -6.9e-05 
0.01015 -0.00309 -5.6e-05 
0.010139 -0.00309 -6.2e-05 
0.010162 -0.003098 -7.4e-05 
0.010174 -0.003105 -7.7e-05 
0.010173 -0.003105 -6.5e-05 
0.010162 -0.003104 -7.1e-05 
0.010161 -0.003097 -4.9e-05 
0.010172 -0.003104 -5.3e-05 
0.010171 -0.003104 -4.1e-05 
0.010161 -0.003104 -4.7e-05 
0.010161 -0.003104 -5.9e-05 
0.01015 -0.003097 -5.5e-05 
0.01015 -0.003097 -6.7e-05 
0.010161 -0.003097 -6.1e-05 
0.010185 -0.003111 -8e-05 
0.010197 -0.003118 -8.1e-05 
0.010195 -0.003118 -7.1e-05 
0.010185 -0.003117 -7.6e-05 
0.010207 -0.003124 -8.2e-05 
0.010218 -0.003129 -8.1e-05 
0.010216 -0.00313 -7.2e-05 
0.010207 -0.003129 -7.6e-05 
0.010204 -0.003124 -6.2e-05 
0.010214 -0.00313 -6.3e-05 
0.010212 -0.00313 -5.3e-05 
0.010204 -0.003129 -5.7e-05 
0.010206 -0.003129 -6.7e-05 
0.010195 -0.003124 -6.6e-05 
0.010197 -0.003123 -7.6e-05 
0.010206 -0.003124 -7.2e-05 
0.010181 -0.003111 -3.4e-05 
0.010191 -0.003118 -3.8e-05 
0.010191 -0.003118 -2.7e-05 
0.010181 -0.003118 -3.2e-05 
0.010201 -0.003124 -4.1e-05 
0.010211 -0.00313 -4.3e-05 
0.010209 -0.00313 -3.4e-05 
0.010201 -0.00313 -3.8e-05 
0.0102 -0.003124 -2e-05 
0.010209 -0.00313 -2.4e-05 
0.010208 -0.00313 -1.5e-05 
0.0102 -0.00313 -1.9e-05 
0.0102 -0.00313 -2.8e-05 
0.010191 -0.003124 -2.5e-05 
0.010191 -0.003124 -3.6e-05 
0.0102 -0.003124 -3e-05 
0.010202 -0.00313 -4.8e-05 
0.010192 -0.003124 -4.6e-05 
0.010194 -0.003124 -5.6e-05 
0.010202 -0.003124 -5.2e-05 
0.010182 -0.003118 -4.3e-05 
0.010171 -0.003111 -3.9e-05 
0.010172 -0.003111 -5.1e-05 
0.010182 -0.003111 -4.5e-05 
0.010184 -0.003118 -6.5e-05 
0.010173 -0.003111 -6.3e-05 
0.010174 -0.003111 -7.4e-05 
0.010184 -0.003111 -6.9e-05 
0.010183 -0.003111 -5.7e-05 
0.010194 -0.003118 -6e-05 
0.010192 -0.003118 -4.9e-05 
0.010183 -0.003118 -5.4e-05 
0.010228 -0.003135 -8e-05 
0.010237 -0.003139 -7.7e-05 
0.010234 -0.00314 -6.9e-05 
0.010228 -0.003139 -7.2e-05 
0.010246 -0.003143 -7.3e-05 
0.010254 -0.003147 -6.7e-05 
0.010251 -0.003147 -6.2e-05 
0.010246 -0.003147 -6.3e-05 
0.01024 -0.003144 -5.9e-05 
0.010248 -0.003148 -5.6e-05 
0.010245 -0.003148 -4.9e-05 
0.01024 -0.003148 -5.1e-05 
0.010243 -0.003147 -5.7e-05 
0.010234 -0.003144 -6.1e-05 
0.010237 -0.003143 -6.8e-05 
0.010243 -0.003144 -6.6e-05 
0.010261 -0.00315 -6.1e-05 
0.010268 -0.003152 -5.4e-05 
0.010264 -0.003153 -5e-05 
0.010261 -0.003152 -5e-05 
0.010274 -0.003153 -4.5e-05 
0.010278 -0.003154 -3.6e-05 
0.010275 -0.003156 -3.4e-05 
0.010274 -0.003155 -3.2e-05 
0.010266 -0.003156 -3.9e-05 
0.010271 -0.003157 -3.1e-05 
0.010268 -0.003158 -2.8e-05 
0.010266 -0.003157 -2.8e-05 
0.01027 -0.003156 -3e-05 
0.010264 -0.003155 -3.9e-05 
0.010268 -0.003154 -4.1e-05 
0.01027 -0.003155 -4.2e-05 
0.010249 -0.003152 -4e-05 
0.010255 -0.003155 -3.6e-05 
0.010253 -0.003155 -3.2e-05 
0.010249 -0.003155 -3.3e-05 
0.01026 -0.003157 -3.1e-05 
0.010265 -0.003159 -2.6e-05 
0.010262 -0.003159 -2.3e-05 
0.01026 -0.003159 -2.3e-05 
0.010255 -0.003158 -2.4e-05 
0.010259 -0.003159 -2e-05 
0.010257 -0.00316 -1.7e-05 
0.010255 -0.00316 -1.7e-05 
0.010258 -0.003159 -2e-05 
0.010253 -0.003157 -2.5e-05 
0.010255 -0.003157 -2.8e-05 
0.010258 -0.003157 -2.8e-05 
0.010263 -0.003158 -2.6e-05 
0.010258 -0.003157 -3.2e-05 
0.010261 -0.003156 -3.5e-05 
0.010263 -0.003157 -3.5e-05 
0.010252 -0.003154 -3.7e-05 
0.010245 -0.003152 -4.2e-05 
0.010248 -0.003151 -4.7e-05 
0.010252 -0.003152 -4.6e-05 
0.010258 -0.003153 -4.6e-05 
0.010251 -0.00315 -5.2e-05 
0.010254 -0.00315 -5.7e-05 
0.010258 -0.003151 -5.6e-05 
0.010255 -0.003151 -5.1e-05 
0.010261 -0.003154 -4.5e-05 
0.010258 -0.003154 -4.1e-05 
0.010255 -0.003154 -4.2e-05 
0.010216 -0.003134 -9e-06 
0.010223 -0.00314 -1.2e-05 
0.010219 -0.003139 -6e-06 
0.010216 -0.003139 -8e-06 
0.01023 -0.003144 -1.4e-05 
0.010237 -0.003149 -1.6e-05 
0.010236 -0.003149 -1e-05 
0.01023 -0.003149 -1.3e-05 
0.010231 -0.003148 -1e-06 
0.010227 -0.003145 -5e-06 
0.01024 -0.003153 -1e-06 
0.010236 -0.003149 -4e-06 
0.01023 -0.003149 -7e-06 
0.010223 -0.003144 -1.1e-05 
0.01023 -0.003145 -7e-06 
0.010242 -0.003152 -1.7e-05 
0.010247 -0.003155 -1.7e-05 
0.010246 -0.003155 -1.2e-05 
0.010242 -0.003155 -1.4e-05 
0.010252 -0.003158 -1.6e-05 
0.010255 -0.00316 -1.4e-05 
0.010254 -0.00316 -1.1e-05 
0.010252 -0.00316 -1.2e-05 
0.010249 -0.003158 -8e-06 
0.010253 -0.00316 -7e-06 
0.010252 -0.00316 -5e-06 
0.010249 -0.00316 -6e-06 
0.01025 -0.00316 -9e-06 
0.010246 -0.003158 -1e-05 
0.010247 -0.003158 -1.3e-05 
0.01025 -0.003158 -1.2e-05 
0.010249 -0.003159 -1e-06 
0.010247 -0.003158 -3e-06 
0.010253 -0.003161 -0.0 
0.010251 -0.00316 -2e-06 
0.010249 -0.00316 -3e-06 
0.010246 -0.003158 -6e-06 
0.010249 -0.003158 -4e-06 
0.010245 -0.003156 -1e-06 
0.010236 -0.003152 -4e-06 
0.010242 -0.003155 -9e-06 
0.010236 -0.003152 -9e-06 
0.010237 -0.003152 -1.4e-05 
0.010242 -0.003152 -1.1e-05 
0.010241 -0.003152 -6e-06 
0.010246 -0.003155 -7e-06 
0.010242 -0.003155 -3e-06 
0.010241 -0.003155 -5e-06 
0.010253 -0.00316 -1.5e-05 
0.010249 -0.003158 -1.7e-05 
0.010251 -0.003158 -2.1e-05 
0.010253 -0.003158 -2e-05 
0.010244 -0.003155 -1.9e-05 
0.010238 -0.003152 -2e-05 
0.010239 -0.003152 -2.5e-05 
0.010244 -0.003152 -2.3e-05 
0.010247 -0.003155 -2.8e-05 
0.010241 -0.003152 -3.1e-05 
0.010243 -0.003152 -3.7e-05 
0.010247 -0.003152 -3.4e-05 
0.010245 -0.003152 -2.9e-05 
0.010251 -0.003155 -2.7e-05 
0.010249 -0.003155 -2.2e-05 
0.010245 -0.003155 -2.4e-05 
0.010231 -0.003149 -1.9e-05 
0.010224 -0.003144 -1.8e-05 
0.010225 -0.003145 -2.5e-05 
0.010231 -0.003145 -2.2e-05 
0.010216 -0.00314 -1.6e-05 
0.010208 -0.003135 -1.4e-05 
0.010209 -0.003135 -2.2e-05 
0.010216 -0.003135 -1.7e-05 
0.010218 -0.00314 -3.2e-05 
0.010209 -0.003135 -3.1e-05 
0.010211 -0.003135 -4e-05 
0.010218 -0.003135 -3.6e-05 
0.010217 -0.003135 -2.7e-05 
0.010225 -0.00314 -2.9e-05 
0.010224 -0.00314 -2e-05 
0.010217 -0.00314 -2.4e-05 
0.010238 -0.003148 -4.5e-05 
0.01023 -0.003144 -4.7e-05 
0.010232 -0.003144 -5.5e-05 
0.010238 -0.003144 -5.2e-05 
0.010221 -0.00314 -4.9e-05 
0.010212 -0.003135 -4.9e-05 
0.010214 -0.003135 -5.8e-05 
0.010221 -0.003135 -5.4e-05 
0.010225 -0.003139 -6.4e-05 
0.010216 -0.003135 -6.6e-05 
0.010218 -0.003134 -7.4e-05 
0.010225 -0.003135 -7.1e-05 
0.010223 -0.003135 -6.3e-05 
0.010232 -0.00314 -6.1e-05 
0.01023 -0.00314 -5.3e-05 
0.010223 -0.00314 -5.7e-05 
0.01022 -0.003135 -4.5e-05 
0.010228 -0.00314 -4.5e-05 
0.010226 -0.00314 -3.7e-05 
0.01022 -0.00314 -4.1e-05 
0.010236 -0.003145 -4.5e-05 
0.010243 -0.003148 -4.3e-05 
0.010241 -0.003149 -3.6e-05 
0.010236 -0.003148 -3.9e-05 
0.010232 -0.003145 -3e-05 
0.010239 -0.003149 -3e-05 
0.010238 -0.003149 -2.3e-05 
0.010232 -0.003149 -2.6e-05 
0.010234 -0.003149 -3.2e-05 
0.010226 -0.003144 -3.3e-05 
0.010228 -0.003144 -4e-05 
0.010234 -0.003145 -3.7e-05 
0.010223 -0.003142 -2e-06 
0.010208 -0.003135 -5e-06 
0.010199 -0.00313 -1e-05 
0.01019 -0.003124 -1.5e-05 
0.010199 -0.003124 -1e-05 
0.01019 -0.003121 -2e-06 
0.01017 -0.003111 -7e-06 
0.010181 -0.003118 -2.1e-05 
0.01017 -0.003111 -1.7e-05 
0.010171 -0.003111 -2.8e-05 
0.010181 -0.003111 -2.2e-05 
0.01018 -0.00311 -1.2e-05 
0.01019 -0.003118 -1.6e-05 
0.010184 -0.003116 -8e-06 
0.01018 -0.003117 -1.1e-05 
0.010149 -0.003094 -3e-06 
0.010126 -0.003082 -8e-06 
0.01016 -0.003104 -3.5e-05 
0.010149 -0.003097 -3e-05 
0.010149 -0.003097 -4.2e-05 
0.01016 -0.003097 -3.6e-05 
0.010138 -0.00309 -2.4e-05 
0.010126 -0.003082 -1.9e-05 
0.010126 -0.003083 -3.1e-05 
0.010138 -0.003083 -2.5e-05 
0.010138 -0.00309 -5e-05 
0.010127 -0.003083 -4.4e-05 
0.010127 -0.003083 -5.7e-05 
0.010138 -0.003083 -5.1e-05 
0.010138 -0.003083 -3.8e-05 
0.010149 -0.00309 -4.3e-05 
0.010149 -0.00309 -3.1e-05 
0.010138 -0.00309 -3.7e-05 
0.010137 -0.003082 -1.3e-05 
0.010149 -0.00309 -1.8e-05 
0.010142 -0.003089 -9e-06 
0.010138 -0.003089 -1.2e-05 
0.01016 -0.003097 -2.4e-05 
0.010171 -0.003104 -2.9e-05 
0.01017 -0.003105 -1.8e-05 
0.01016 -0.003104 -2.3e-05 
0.010162 -0.003103 -2e-06 
0.010155 -0.003099 -9e-06 
0.010178 -0.003112 -2e-06 
0.01017 -0.003105 -7e-06 
0.01016 -0.003105 -1.2e-05 
0.010149 -0.003097 -1.8e-05 
0.01016 -0.003098 -1.2e-05 
0.010201 -0.003129 -2e-06 
0.010196 -0.003125 -7e-06 
0.010214 -0.003136 -2e-06 
0.010208 -0.00313 -6e-06 
0.008921 0.0 -0.003522 
0.008953 -0.000195 -0.003596 
0.008938 -0.000233 -0.003124 
0.008964 -0.000321 -0.002926 
0.008826 -0.000163 -0.003004 
0.008939 -0.000192 -0.003108 
0.009002 -0.000413 -0.002723 
0.009032 -0.000507 -0.002533 
0.008897 -0.000293 -0.002563 
0.009001 -0.000404 -0.0027 
0.008774 0.0 -0.002708 
0.008789 -0.000156 -0.002784 
0.008864 -0.000209 -0.002706 
0.008964 -0.000314 -0.002892 
0.008867 -0.00017 -0.002736 
0.009068 -0.000593 -0.002338 
0.009102 -0.000673 -0.002154 
0.008977 -0.00047 -0.002194 
0.009069 -0.000569 -0.002315 
0.009135 -0.000748 -0.001972 
0.009168 -0.000818 -0.001797 
0.009052 -0.000629 -0.001845 
0.009135 -0.000718 -0.001951 
0.008897 -0.000354 -0.002039 
0.008934 -0.00044 -0.001877 
0.008816 -0.000256 -0.001897 
0.008896 -0.00035 -0.002017 
0.009016 -0.000533 -0.001992 
0.008977 -0.000454 -0.002164 
0.009102 -0.000646 -0.00213 
0.009016 -0.000552 -0.002016 
0.008701 0.0 -0.002022 
0.008709 -0.000135 -0.002096 
0.008778 -0.000181 -0.002021 
0.008853 -0.000268 -0.002181 
0.008781 -0.000149 -0.002046 
0.008718 0.0 -0.002204 
0.008781 -0.000125 -0.002557 
0.008737 0.0 -0.002393 
0.008781 -0.000128 -0.002516 
0.008941 -0.000368 -0.002348 
0.008897 -0.000289 -0.002515 
0.009032 -0.000487 -0.002501 
0.008941 -0.000384 -0.002369 
0.008817 -0.000196 -0.002382 
0.008853 -0.000273 -0.002213 
0.008728 -0.000139 -0.002286 
0.008818 -0.000161 -0.002363 
0.008807 0.0 -0.00292 
0.008912 -0.000148 -0.003328 
0.008845 0.0 -0.003141 
0.008912 -0.000157 -0.003281 
0.009201 -0.000885 -0.001627 
0.009234 -0.00095 -0.001464 
0.009126 -0.000774 -0.001512 
0.009201 -0.000855 -0.001609 
0.009267 -0.001012 -0.001306 
0.009299 -0.001072 -0.001153 
0.009199 -0.000908 -0.001198 
0.009267 -0.000983 -0.001289 
0.009056 -0.000669 -0.00139 
0.009095 -0.00074 -0.001235 
0.008988 -0.00057 -0.001264 
0.009056 -0.000652 -0.001366 
0.009163 -0.000819 -0.001332 
0.009126 -0.000751 -0.00149 
0.009234 -0.00092 -0.001446 
0.009163 -0.000842 -0.001353 
0.009332 -0.001131 -0.001006 
0.009366 -0.00119 -0.000865 
0.009271 -0.001035 -0.000904 
0.009332 -0.001105 -0.000991 
0.009399 -0.001247 -0.000729 
0.009434 -0.001305 -0.000599 
0.009344 -0.001159 -0.000631 
0.009399 -0.001226 -0.000716 
0.009211 -0.000942 -0.000796 
0.00925 -0.001008 -0.000659 
0.009154 -0.000853 -0.000682 
0.009211 -0.000927 -0.000776 
0.009307 -0.001078 -0.000748 
0.009271 -0.001015 -0.000887 
0.009366 -0.001166 -0.000851 
0.009307 -0.001097 -0.000765 
0.008925 -0.000476 -0.001132 
0.008968 -0.000551 -0.000987 
0.008864 -0.000387 -0.001002 
0.008926 -0.000468 -0.001107 
0.009012 -0.000624 -0.000843 
0.009055 -0.000696 -0.000702 
0.008954 -0.000537 -0.000717 
0.009012 -0.000614 -0.000818 
0.008808 -0.000299 -0.000863 
0.008851 -0.000377 -0.000728 
0.008749 -0.000222 -0.000737 
0.008808 -0.0003 -0.000842 
0.00891 -0.000456 -0.000832 
0.008864 -0.000381 -0.000972 
0.008968 -0.000542 -0.000961 
0.00891 -0.000462 -0.000857 
0.009113 -0.000772 -0.0008 
0.009072 -0.000701 -0.000942 
0.009173 -0.000859 -0.000917 
0.009113 -0.000784 -0.000822 
0.00903 -0.00063 -0.001088 
0.008988 -0.000558 -0.001237 
0.009095 -0.000722 -0.001212 
0.00903 -0.000643 -0.001113 
0.009235 -0.00095 -0.00103 
0.009199 -0.000885 -0.001179 
0.009299 -0.001045 -0.001137 
0.009235 -0.000972 -0.001049 
0.009134 -0.000809 -0.001085 
0.009173 -0.000876 -0.000938 
0.009072 -0.000715 -0.000966 
0.009134 -0.000791 -0.001063 
0.009469 -0.001363 -0.000475 
0.009504 -0.001422 -0.000356 
0.009419 -0.001282 -0.000378 
0.009469 -0.001348 -0.000463 
0.00954 -0.001481 -0.000243 
0.009577 -0.001541 -0.000136 
0.009496 -0.001407 -0.000147 
0.00954 -0.001472 -0.000234 
0.00937 -0.001202 -0.000274 
0.009411 -0.001268 -0.000156 
0.009322 -0.001125 -0.000165 
0.00937 -0.001195 -0.000259 
0.009457 -0.001336 -0.000247 
0.009419 -0.001271 -0.000364 
0.009504 -0.001409 -0.000346 
0.009457 -0.001344 -0.000259 
0.009615 -0.001601 -3.6e-05 
0.009653 -0.001663 5.8e-05 
0.009576 -0.001535 6.1e-05 
0.009615 -0.0016 -3e-05 
0.009692 -0.001726 0.000145 
0.009731 -0.001791 0.000224 
0.009659 -0.001668 0.000241 
0.009692 -0.001733 0.000148 
0.009538 -0.00147 0.000164 
0.009582 -0.00154 0.000258 
0.009501 -0.001406 0.000273 
0.009538 -0.001476 0.000173 
0.009617 -0.001607 0.000161 
0.009576 -0.001538 6.9e-05 
0.009653 -0.001666 6.2e-05 
0.009617 -0.001601 0.000155 
0.009275 -0.001049 -5e-05 
0.009321 -0.00112 6.8e-05 
0.009229 -0.000974 6.9e-05 
0.009275 -0.001048 -3.2e-05 
0.009368 -0.001193 0.00018 
0.009415 -0.001267 0.000288 
0.009326 -0.001124 0.0003 
0.009368 -0.001198 0.000196 
0.009184 -0.0009 0.000193 
0.009234 -0.000977 0.000312 
0.009139 -0.000828 0.000321 
0.009184 -0.000904 0.000214 
0.009277 -0.001053 0.000206 
0.009229 -0.000976 8.9e-05 
0.009321 -0.001122 8.5e-05 
0.009277 -0.001048 0.000187 
0.009455 -0.001339 0.000185 
0.00941 -0.001265 8e-05 
0.009495 -0.001404 7.4e-05 
0.009455 -0.001334 0.000172 
0.009365 -0.001192 -3.1e-05 
0.009322 -0.001121 -0.000148 
0.009411 -0.001263 -0.000142 
0.009365 -0.001193 -4.7e-05 
0.009536 -0.001469 -3e-05 
0.009496 -0.001402 -0.000136 
0.009577 -0.001535 -0.000129 
0.009536 -0.00147 -4e-05 
0.009452 -0.001334 -4.4e-05 
0.009495 -0.001401 6.3e-05 
0.00941 -0.001263 6.6e-05 
0.009452 -0.001333 -3.1e-05 
0.008701 -0.000154 -0.000595 
0.008745 -0.000218 -0.000461 
0.008637 -0.000111 -0.000524 
0.008703 -0.000126 -0.000576 
0.008794 -0.000289 -0.000322 
0.008839 -0.000366 -0.000193 
0.008739 -0.000216 -0.000198 
0.008794 -0.000292 -0.000301 
0.008634 0.0 -0.000298 
0.008635 -0.000111 -0.000368 
0.008697 -0.000151 -0.0003 
0.008745 -0.000217 -0.000433 
0.008699 -0.000124 -0.00032 
0.00889 -0.000443 -5.7e-05 
0.008939 -0.000519 7.3e-05 
0.00884 -0.000366 7.3e-05 
0.00889 -0.000442 -3.3e-05 
0.00899 -0.000597 0.000202 
0.009041 -0.000675 0.000329 
0.008942 -0.000521 0.000334 
0.00899 -0.000599 0.000227 
0.008793 -0.000287 0.00021 
0.008842 -0.000367 0.000337 
0.008741 -0.000216 0.000335 
0.008793 -0.000292 0.000231 
0.008891 -0.000444 0.00023 
0.00884 -0.000366 0.000101 
0.008939 -0.00052 9.9e-05 
0.008891 -0.000443 0.000205 
0.008633 0.0 0.000238 
0.008633 -0.00011 0.000166 
0.008696 -0.000151 0.000234 
0.008741 -0.000216 0.000102 
0.008698 -0.000124 0.000215 
0.008633 0.0 8.9e-05 
0.008653 -9.5e-05 -0.000194 
0.008632 0.0 -6.1e-05 
0.008653 -9.5e-05 -0.000162 
0.008792 -0.000287 -3.5e-05 
0.008739 -0.000216 -0.000159 
0.008839 -0.000365 -0.000163 
0.008792 -0.000291 -5.6e-05 
0.008696 -0.000151 -5.8e-05 
0.008741 -0.000216 7.4e-05 
0.008633 -0.00011 1.2e-05 
0.008697 -0.000124 -3.9e-05 
0.009088 -0.000753 0.000221 
0.009038 -0.000674 9.6e-05 
0.009134 -0.000826 9.3e-05 
0.009088 -0.00075 0.000198 
0.008989 -0.000596 -3.2e-05 
0.00894 -0.00052 -0.000162 
0.009038 -0.000673 -0.00016 
0.008989 -0.000597 -5.7e-05 
0.009182 -0.0009 -3.2e-05 
0.009135 -0.000825 -0.000157 
0.00923 -0.000974 -0.000153 
0.009182 -0.000901 -5.3e-05 
0.009086 -0.00075 -5.5e-05 
0.009134 -0.000825 7.1e-05 
0.009038 -0.000673 7.2e-05 
0.009086 -0.000749 -3.2e-05 
0.008892 -0.000444 -0.000297 
0.008844 -0.000368 -0.00043 
0.008945 -0.000523 -0.000425 
0.008892 -0.000446 -0.000322 
0.0088 -0.000291 -0.00057 
0.008749 -0.00022 -0.000698 
0.008851 -0.000373 -0.000698 
0.008799 -0.000297 -0.000591 
0.008999 -0.000604 -0.000553 
0.008954 -0.00053 -0.00069 
0.009055 -0.000687 -0.000678 
0.008999 -0.00061 -0.000578 
0.008899 -0.000452 -0.000587 
0.008945 -0.000527 -0.000451 
0.008844 -0.000371 -0.000458 
0.008899 -0.000448 -0.000562 
0.009279 -0.00105 -0.000269 
0.009237 -0.00098 -0.000396 
0.00933 -0.001127 -0.000381 
0.009279 -0.001057 -0.000288 
0.009195 -0.000911 -0.000526 
0.009154 -0.000841 -0.000661 
0.00925 -0.000993 -0.00064 
0.009195 -0.000921 -0.000547 
0.009381 -0.001206 -0.000487 
0.009344 -0.001142 -0.000615 
0.009434 -0.001287 -0.000587 
0.009381 -0.00122 -0.000502 
0.00929 -0.001073 -0.000526 
0.00933 -0.001137 -0.000397 
0.009237 -0.000989 -0.000415 
0.00929 -0.00106 -0.000508 
0.009098 -0.000767 -0.000564 
0.009142 -0.000837 -0.00043 
0.009044 -0.000683 -0.000442 
0.009098 -0.000758 -0.000541 
0.009186 -0.000907 -0.000299 
0.00923 -0.000978 -0.000172 
0.009135 -0.000828 -0.000179 
0.009186 -0.000902 -0.000278 
0.008992 -0.000601 -0.000317 
0.009038 -0.000675 -0.000185 
0.00894 -0.000521 -0.000189 
0.008992 -0.000598 -0.000292 
0.00909 -0.000751 -0.000286 
0.009044 -0.000677 -0.000418 
0.009142 -0.00083 -0.000408 
0.00909 -0.000755 -0.000309 
0.008636 0.0 -0.000448 
0.008661 -9.7e-05 -0.000734 
0.008637 0.0 -0.000599 
0.00866 -9.8e-05 -0.000701 
0.008708 -0.000156 -0.000842 
0.008761 -0.000225 -0.000979 
0.00871 -0.000128 -0.000863 
0.008648 0.0 -0.000996 
0.008679 -0.000102 -0.001294 
0.008652 0.0 -0.001154 
0.008679 -0.000103 -0.00126 
0.008821 -0.000303 -0.001121 
0.008772 -0.000232 -0.001256 
0.00888 -0.000392 -0.001252 
0.008821 -0.000312 -0.001142 
0.008719 -0.000161 -0.001149 
0.008761 -0.000228 -0.001008 
0.00865 -0.000116 -0.001073 
0.008721 -0.000132 -0.001129 
0.008672 0.0 -0.001575 
0.008715 -0.000111 -0.001893 
0.008682 0.0 -0.001744 
0.008714 -0.000112 -0.001856 
0.008947 -0.000484 -0.001391 
0.008904 -0.000408 -0.001544 
0.009016 -0.00058 -0.001523 
0.008947 -0.000495 -0.001416 
0.008864 -0.000327 -0.001706 
0.008816 -0.000253 -0.001853 
0.008934 -0.000428 -0.001845 
0.008864 -0.000339 -0.001728 
0.00909 -0.000681 -0.001653 
0.009052 -0.000608 -0.001819 
0.009168 -0.000788 -0.001777 
0.00909 -0.000704 -0.001675 
0.008977 -0.00052 -0.001709 
0.009016 -0.000596 -0.001549 
0.008904 -0.000418 -0.001573 
0.008977 -0.000505 -0.001684 
0.008753 -0.000174 -0.001736 
0.008793 -0.000245 -0.001585 
0.008677 -0.000124 -0.001653 
0.008755 -0.000143 -0.001717 
0.00884 -0.000319 -0.001429 
0.00888 -0.0004 -0.001284 
0.008772 -0.000235 -0.001297 
0.008839 -0.000318 -0.001407 
0.008663 0.0 -0.001409 
0.008667 -0.000122 -0.001481 
0.008732 -0.000165 -0.001409 
0.008793 -0.000241 -0.001555 
0.008735 -0.000136 -0.001432 
0.008642 0.0 -0.000841 
0.008645 -0.000114 -0.000911 
0.009771 -0.001856 0.000296 
0.009811 -0.001923 0.00036 
0.009744 -0.001806 0.000392 
0.009771 -0.001872 0.000295 
0.00985 -0.00199 0.000416 
0.00989 -0.002059 0.000462 
0.009829 -0.001949 0.00051 
0.00985 -0.002015 0.000408 
0.009717 -0.001757 0.000495 
0.009763 -0.001833 0.000557 
0.009692 -0.001709 0.000604 
0.009717 -0.001781 0.000495 
0.009786 -0.001901 0.000452 
0.009744 -0.001826 0.000391 
0.009811 -0.001943 0.000356 
0.009786 -0.001877 0.000456 
0.009928 -0.002128 0.000499 
0.009966 -0.002198 0.000526 
0.009913 -0.002096 0.000589 
0.009928 -0.002161 0.000485 
0.010002 -0.002267 0.000543 
0.010035 -0.002336 0.00055 
0.009991 -0.002244 0.000626 
0.010002 -0.002308 0.000521 
0.009899 -0.002065 0.000685 
0.009941 -0.002144 0.000706 
0.009886 -0.002037 0.000787 
0.009899 -0.002109 0.000669 
0.009953 -0.002213 0.000594 
0.009913 -0.002134 0.000574 
0.009966 -0.002235 0.000508 
0.009953 -0.00217 0.000613 
0.009667 -0.001662 0.00072 
0.00972 -0.001747 0.000781 
0.009644 -0.001617 0.000842 
0.009667 -0.001695 0.00072 
0.009772 -0.001833 0.000831 
0.009824 -0.001921 0.000869 
0.009756 -0.001797 0.000951 
0.009772 -0.001877 0.000822 
0.009622 -0.001571 0.000971 
0.009681 -0.001666 0.001031 
0.009601 -0.001527 0.001107 
0.009622 -0.001612 0.000972 
0.0097 -0.001748 0.000898 
0.009644 -0.001653 0.000843 
0.00972 -0.001785 0.000777 
0.0097 -0.001706 0.000902 
0.009838 -0.001997 0.000746 
0.00979 -0.001909 0.00071 
0.009854 -0.002026 0.000642 
0.009838 -0.001953 0.000758 
0.009741 -0.001823 0.000662 
0.009692 -0.001737 0.000604 
0.009763 -0.001861 0.000554 
0.009741 -0.001789 0.000666 
0.009871 -0.002056 0.000543 
0.009829 -0.001978 0.000502 
0.00989 -0.002088 0.000451 
0.009871 -0.002022 0.000554 
0.009809 -0.001909 0.00061 
0.009854 -0.001987 0.000653 
0.00979 -0.001871 0.000717 
0.009809 -0.001943 0.000603 
0.010066 -0.002404 0.000546 
0.010093 -0.00247 0.000533 
0.010059 -0.00239 0.00062 
0.010066 -0.002452 0.000516 
0.010117 -0.002534 0.000509 
0.010135 -0.002595 0.000477 
0.010112 -0.002528 0.00057 
0.010117 -0.002586 0.000471 
0.010054 -0.002378 0.000697 
0.010084 -0.002452 0.000671 
0.010051 -0.002368 0.000778 
0.010054 -0.002437 0.000661 
0.010088 -0.002515 0.000563 
0.010059 -0.002443 0.000587 
0.010093 -0.00252 0.000499 
0.010088 -0.00246 0.0006 
0.010149 -0.002653 0.000436 
0.010156 -0.002707 0.000387 
0.010143 -0.002652 0.000481 
0.010149 -0.002706 0.000391 
0.010158 -0.002756 0.000333 
0.010152 -0.002799 0.000275 
0.010149 -0.002758 0.000363 
0.010158 -0.002807 0.000284 
0.010139 -0.002654 0.000527 
0.010143 -0.002712 0.000462 
0.010135 -0.002659 0.000572 
0.010139 -0.002717 0.000474 
0.01015 -0.002765 0.000374 
0.010143 -0.00271 0.000433 
0.010156 -0.002759 0.00034 
0.01015 -0.002708 0.000425 
0.01005 -0.002362 0.000862 
0.010082 -0.002445 0.000818 
0.010051 -0.002359 0.000948 
0.01005 -0.002434 0.000818 
0.010107 -0.002524 0.000762 
0.010124 -0.002598 0.000694 
0.010108 -0.00253 0.000827 
0.010107 -0.002599 0.000706 
0.010055 -0.002359 0.001037 
0.010088 -0.002452 0.000972 
0.010062 -0.002363 0.001128 
0.010055 -0.002446 0.000981 
0.010084 -0.002528 0.000838 
0.010051 -0.002438 0.000899 
0.010082 -0.002519 0.000768 
0.010084 -0.002447 0.000895 
0.010125 -0.002662 0.000584 
0.010107 -0.002591 0.000646 
0.010127 -0.002654 0.000535 
0.010125 -0.002593 0.00064 
0.010082 -0.002515 0.000698 
0.010051 -0.002434 0.000738 
0.010084 -0.002514 0.00063 
0.010082 -0.002447 0.000744 
0.010131 -0.00265 0.000485 
0.010112 -0.002585 0.000529 
0.010135 -0.002648 0.000435 
0.010131 -0.002592 0.00053 
0.010109 -0.002524 0.000633 
0.010127 -0.002591 0.000585 
0.010107 -0.002522 0.000697 
0.010109 -0.002586 0.000587 
0.009581 -0.001483 0.00125 
0.009649 -0.001588 0.001308 
0.009562 -0.001439 0.0014 
0.009581 -0.001532 0.00125 
0.009718 -0.001697 0.001352 
0.009786 -0.001809 0.00138 
0.009709 -0.001666 0.001501 
0.009718 -0.001762 0.001339 
0.009545 -0.001395 0.001558 
0.009624 -0.001513 0.001617 
0.009529 -0.001351 0.001724 
0.009545 -0.001452 0.001557 
0.009635 -0.001613 0.001451 
0.009562 -0.001492 0.0014 
0.009649 -0.001645 0.001302 
0.009635 -0.00155 0.001458 
0.009853 -0.001922 0.001389 
0.009917 -0.002037 0.001378 
0.009855 -0.001906 0.001529 
0.009853 -0.002004 0.001358 
0.009976 -0.002151 0.001347 
0.010028 -0.002263 0.001293 
0.009986 -0.00215 0.001467 
0.009976 -0.002247 0.001295 
0.00986 -0.001892 0.001675 
0.009934 -0.002023 0.001647 
0.00987 -0.001881 0.001829 
0.00986 -0.001991 0.001634 
0.009923 -0.002126 0.001462 
0.009855 -0.001996 0.001493 
0.009917 -0.002126 0.001337 
0.009923 -0.002028 0.00151 
0.009515 -0.001306 0.001899 
0.009607 -0.001439 0.001959 
0.009503 -0.00126 0.002083 
0.009515 -0.001372 0.001896 
0.0097 -0.001578 0.001998 
0.009794 -0.001724 0.00201 
0.009705 -0.001551 0.002183 
0.0097 -0.001671 0.001972 
0.009493 -0.001212 0.002277 
0.009602 -0.001363 0.002342 
0.009486 -0.001163 0.002483 
0.009493 -0.001287 0.002272 
0.009603 -0.001486 0.00213 
0.009503 -0.00133 0.002079 
0.009607 -0.001518 0.001946 
0.009603 -0.001401 0.002145 
0.009786 -0.001839 0.001805 
0.0097 -0.001692 0.001801 
0.009783 -0.001851 0.001649 
0.009786 -0.001742 0.001839 
0.009614 -0.001549 0.001773 
0.009529 -0.001412 0.001722 
0.009624 -0.001581 0.001608 
0.009614 -0.001476 0.001783 
0.009783 -0.001865 0.0015 
0.009709 -0.001737 0.001485 
0.009786 -0.001882 0.001358 
0.009783 -0.001785 0.001525 
0.009703 -0.001636 0.001657 
0.009783 -0.001763 0.001678 
0.0097 -0.001607 0.001823 
0.009703 -0.001714 0.001639 
0.01002 -0.002353 0.001133 
0.00997 -0.002242 0.001185 
0.010014 -0.002346 0.001038 
0.01002 -0.002261 0.001188 
0.009914 -0.002129 0.001216 
0.009855 -0.002015 0.001229 
0.009915 -0.002136 0.0011 
0.009914 -0.002048 0.001252 
0.010012 -0.002344 0.000944 
0.009967 -0.002246 0.000975 
0.010012 -0.002345 0.000854 
0.010012 -0.002268 0.000987 
0.009967 -0.002163 0.001117 
0.010014 -0.002263 0.001086 
0.00997 -0.002156 0.00123 
0.009967 -0.002242 0.001078 
0.009792 -0.001901 0.001223 
0.009729 -0.001789 0.0012 
0.009801 -0.001922 0.001094 
0.009792 -0.001834 0.001242 
0.009664 -0.001679 0.001161 
0.009601 -0.001572 0.001107 
0.009681 -0.001713 0.001026 
0.009664 -0.001627 0.001166 
0.009811 -0.001945 0.000972 
0.009756 -0.001846 0.000942 
0.009824 -0.00197 0.000856 
0.009811 -0.001891 0.000987 
0.009741 -0.001763 0.001077 
0.009801 -0.001862 0.001111 
0.009729 -0.001729 0.001211 
0.009741 -0.001817 0.001067 
0.010015 -0.002349 0.000766 
0.009975 -0.002263 0.00078 
0.01002 -0.002357 0.000681 
0.010015 -0.002287 0.0008 
0.009932 -0.002174 0.000782 
0.009886 -0.002086 0.00077 
0.009941 -0.002192 0.000685 
0.009932 -0.002121 0.000804 
0.010027 -0.002368 0.000601 
0.009991 -0.002291 0.000603 
0.010035 -0.002381 0.000524 
0.010027 -0.002317 0.000629 
0.009982 -0.002223 0.000715 
0.01002 -0.002301 0.000712 
0.009975 -0.002204 0.000808 
0.009982 -0.002275 0.000689 
0.009875 -0.00201 0.000895 
0.009924 -0.002099 0.000908 
0.009866 -0.001985 0.001009 
0.009875 -0.002065 0.000876 
0.00997 -0.002188 0.000907 
0.010012 -0.002276 0.000891 
0.009967 -0.002174 0.00101 
0.00997 -0.002253 0.000876 
0.009859 -0.001962 0.001129 
0.009915 -0.002063 0.001132 
0.009855 -0.001941 0.001256 
0.009859 -0.002029 0.001106 
0.009918 -0.002146 0.000989 
0.009866 -0.002046 0.000988 
0.009924 -0.002159 0.000883 
0.009918 -0.00208 0.001017 
0.010141 -0.002837 0.000213 
0.010123 -0.002869 0.000151 
0.010126 -0.002841 0.000229 
0.010141 -0.002883 0.000164 
0.010098 -0.002895 9.1e-05 
0.010067 -0.002916 3.3e-05 
0.010074 -0.002897 9.5e-05 
0.010098 -0.002933 4.6e-05 
0.010108 -0.002845 0.000242 
0.010081 -0.002876 0.000168 
0.010089 -0.002851 0.000252 
0.010108 -0.002896 0.000187 
0.010103 -0.002916 0.000111 
0.010126 -0.002889 0.000177 
0.010123 -0.002911 0.000104 
0.010103 -0.002872 0.000161 
0.010031 -0.00293 -2e-05 
0.009991 -0.002938 -6.6e-05 
0.009997 -0.002927 -2e-05 
0.010031 -0.002959 -5.4e-05 
0.009946 -0.002942 -0.000103 
0.009899 -0.002941 -0.000131 
0.009901 -0.002935 -0.000102 
0.009946 -0.002962 -0.000123 
0.009957 -0.002924 -2.2e-05 
0.009905 -0.002928 -6.7e-05 
0.009911 -0.00292 -2.5e-05 
0.009957 -0.002952 -5.4e-05 
0.00995 -0.002957 -9.2e-05 
0.009997 -0.002956 -5.4e-05 
0.009991 -0.002963 -9.3e-05 
0.00995 -0.002934 -6.6e-05 
0.010066 -0.002858 0.000258 
0.010025 -0.002884 0.000172 
0.010039 -0.002865 0.000259 
0.010066 -0.002911 0.000195 
0.009976 -0.002902 9.4e-05 
0.00992 -0.002911 2.6e-05 
0.009933 -0.002902 8.6e-05 
0.009976 -0.002941 4.5e-05 
0.010006 -0.002872 0.000254 
0.009948 -0.002891 0.000158 
0.009967 -0.002878 0.000242 
0.010006 -0.002925 0.000184 
0.00999 -0.002934 0.000108 
0.010039 -0.002919 0.000192 
0.010025 -0.00293 0.000115 
0.00999 -0.002888 0.000167 
0.009965 -0.002947 -9e-06 
0.010014 -0.00294 4.9e-05 
0.010004 -0.002949 -7e-06 
0.009965 -0.002914 3.1e-05 
0.010055 -0.002926 0.000117 
0.010089 -0.002903 0.000193 
0.010081 -0.002921 0.000116 
0.010055 -0.00288 0.000172 
0.010038 -0.002949 -6e-06 
0.010074 -0.002936 5e-05 
0.010067 -0.002949 -7e-06 
0.010038 -0.002915 3.4e-05 
0.010046 -0.002899 9.8e-05 
0.010004 -0.002915 3.4e-05 
0.010014 -0.002901 9.7e-05 
0.010046 -0.002938 5e-05 
0.009849 -0.002937 -0.000149 
0.0098 -0.002929 -0.000155 
0.009795 -0.002924 -0.00014 
0.009849 -0.002948 -0.00015 
0.00975 -0.002919 -0.000149 
0.009702 -0.002908 -0.000132 
0.009689 -0.002902 -0.000127 
0.00975 -0.002925 -0.00013 
0.009734 -0.00291 -0.000127 
0.009677 -0.002897 -0.000119 
0.009667 -0.002893 -0.000109 
0.009734 -0.002919 -0.000116 
0.009741 -0.002922 -0.000124 
0.009795 -0.002935 -0.000135 
0.0098 -0.002937 -0.000146 
0.009741 -0.002914 -0.00014 
0.00966 -0.002895 -0.000105 
0.009626 -0.002884 -7.4e-05 
0.009602 -0.002876 -7.1e-05 
0.009659 -0.002902 -6e-05 
0.009604 -0.002877 -3.6e-05 
0.009625 -0.002893 -8e-06 
0.009544 -0.002855 -3e-05 
0.009602 -0.002888 -1.3e-05 
0.009594 -0.002872 -8.3e-05 
0.009574 -0.002865 -3.4e-05 
0.009536 -0.002855 -5.2e-05 
0.009517 -0.00285 -4.4e-05 
0.009594 -0.002881 -6.6e-05 
0.009457 -0.00283 -9e-06 
0.009517 -0.002857 -4.9e-05 
0.009536 -0.002867 -3.6e-05 
0.009485 -0.002837 -1.7e-05 
0.009557 -0.002875 -2.6e-05 
0.009514 -0.002846 -2.4e-05 
0.009579 -0.002882 -1.9e-05 
0.009608 -0.002886 -6.4e-05 
0.009667 -0.002901 -9.2e-05 
0.009677 -0.002904 -9.6e-05 
0.009608 -0.002878 -9.1e-05 
0.009642 -0.002896 -6.2e-05 
0.009689 -0.002908 -9.9e-05 
0.009702 -0.002912 -0.000101 
0.009642 -0.002889 -0.000102 
0.009625 -0.002883 -9.8e-05 
0.009579 -0.002869 -6.6e-05 
0.009557 -0.002862 -6.1e-05 
0.009625 -0.002891 -6.3e-05 
0.009919 -0.002883 0.000223 
0.009837 -0.00289 0.000123 
0.00986 -0.002885 0.000197 
0.009919 -0.002932 0.000149 
0.009748 -0.002887 4.5e-05 
0.009653 -0.002875 -8e-06 
0.009663 -0.002873 2.8e-05 
0.009748 -0.002915 6e-06 
0.009788 -0.002882 0.000164 
0.009678 -0.002872 7.2e-05 
0.0097 -0.002873 0.000126 
0.009788 -0.002922 9.1e-05 
0.009765 -0.002917 4.5e-05 
0.00986 -0.00293 0.000123 
0.009837 -0.002928 6.5e-05 
0.009765 -0.002884 9.9e-05 
0.00956 -0.002856 -3.7e-05 
0.009477 -0.002834 -4.7e-05 
0.009466 -0.002828 -3.3e-05 
0.00956 -0.002874 -2.6e-05 
0.009406 -0.002814 -3.6e-05 
0.009476 -0.002853 8e-06 
0.009367 -0.002794 -1.5e-05 
0.009466 -0.002854 -2e-06 
0.009385 -0.002802 -2.7e-05 
0.009599 -0.002855 9.1e-05 
0.009472 -0.002826 4.2e-05 
0.009498 -0.002835 8e-05 
0.009597 -0.002888 1.5e-05 
0.009355 -0.002789 1e-06 
0.009353 -0.002796 4e-05 
0.009504 -0.002857 9e-05 
0.00948 -0.002857 -5.6e-05 
0.009469 -0.002851 -4.4e-05 
0.009349 -0.002787 2.1e-05 
0.009462 -0.002854 -2.5e-05 
0.009461 -0.002854 -1.3e-05 
0.009578 -0.00288 -1e-06 
0.0097 -0.002907 5.6e-05 
0.009678 -0.002901 2.2e-05 
0.009578 -0.002853 4.9e-05 
0.009561 -0.002875 -2.1e-05 
0.009663 -0.002898 -4e-06 
0.009653 -0.002895 -2.5e-05 
0.009561 -0.002853 -1.4e-05 
0.009567 -0.002852 1.5e-05 
0.009461 -0.002825 -1.2e-05 
0.009462 -0.002824 1.2e-05 
0.009567 -0.002877 -1.2e-05 
0.009432 -0.002828 2e-06 
0.009565 -0.002876 -3.3e-05 
0.0095 -0.002851 -6.3e-05 
0.009486 -0.002856 1.6e-05 
0.009649 -0.002895 -4.3e-05 
0.009649 -0.002894 -6e-05 
0.009565 -0.00286 -5.7e-05 
0.009582 -0.002878 -6.5e-05 
0.009653 -0.002896 -7.5e-05 
0.009658 -0.002898 -8.5e-05 
0.009581 -0.002868 -7.3e-05 
0.009575 -0.002864 -6.5e-05 
0.009504 -0.002849 -3.2e-05 
0.009497 -0.002844 -6.3e-05 
0.009574 -0.002873 -5.2e-05 
0.009736 -0.002913 -2.6e-05 
0.00982 -0.002927 1.7e-05 
0.009807 -0.002927 -2.2e-05 
0.009736 -0.00289 1e-06 
0.009898 -0.002934 8.3e-05 
0.009967 -0.00293 0.000169 
0.009948 -0.002935 9.8e-05 
0.009898 -0.002892 0.000143 
0.009868 -0.002937 -1.8e-05 
0.009933 -0.002939 3.7e-05 
0.00992 -0.002943 -1.3e-05 
0.009868 -0.002907 1.9e-05 
0.009881 -0.0029 7.6e-05 
0.009807 -0.0029 1e-05 
0.00982 -0.002895 6.2e-05 
0.009881 -0.002935 2.8e-05 
0.009729 -0.002917 -0.000105 
0.009792 -0.002931 -0.000104 
0.009792 -0.002932 -0.000122 
0.009729 -0.002905 -0.000111 
0.009853 -0.002941 -8.7e-05 
0.009911 -0.002947 -5.5e-05 
0.009905 -0.00295 -9e-05 
0.009853 -0.00292 -6.8e-05 
0.009849 -0.002946 -0.000134 
0.009901 -0.002954 -0.000119 
0.009899 -0.002957 -0.000142 
0.009849 -0.002931 -0.000127 
0.00985 -0.002926 -0.000101 
0.009792 -0.002919 -0.000121 
0.009792 -0.002915 -9.7e-05 
0.00985 -0.002943 -0.000113 
0.009859 -0.002914 -2.8e-05 
0.009794 -0.00291 -6.8e-05 
0.009799 -0.002905 -3.2e-05 
0.009859 -0.002939 -5.6e-05 
0.009726 -0.002901 -9.1e-05 
0.009658 -0.002888 -9.6e-05 
0.009653 -0.002884 -8.1e-05 
0.009726 -0.002915 -9.2e-05 
0.009729 -0.002893 -3.6e-05 
0.009649 -0.002881 -6.2e-05 
0.009649 -0.002877 -3.8e-05 
0.009729 -0.002913 -5.2e-05 
0.009726 -0.002913 -7.4e-05 
0.009799 -0.002928 -5.5e-05 
0.009794 -0.002929 -8.2e-05 
0.009726 -0.002897 -6.6e-05 
0.009481 -0.00111 0.0027 
0.009612 -0.001284 0.002775 
0.009479 -0.001054 0.002931 
0.009481 -0.001192 0.002693 
0.009751 -0.001472 0.002812 
0.009892 -0.001673 0.002799 
0.009782 -0.001446 0.003052 
0.009751 -0.001604 0.00276 
0.009482 -0.000993 0.003177 
0.009647 -0.001195 0.00327 
0.009488 -0.000925 0.003437 
0.009482 -0.00108 0.003166 
0.009626 -0.001354 0.002982 
0.009479 -0.001139 0.002922 
0.009612 -0.001389 0.002749 
0.009626 -0.001241 0.003014 
0.010029 -0.001884 0.002724 
0.01015 -0.002098 0.002577 
0.010096 -0.001903 0.00293 
0.010029 -0.002071 0.0026 
0.010243 -0.002305 0.002356 
0.010297 -0.002494 0.002065 
0.010324 -0.002365 0.002458 
0.010243 -0.002521 0.002142 
0.010185 -0.001931 0.003145 
0.010331 -0.002195 0.002897 
0.010301 -0.001972 0.003368 
0.010185 -0.002176 0.002948 
0.010229 -0.002374 0.002529 
0.010096 -0.002115 0.002775 
0.01015 -0.002304 0.002409 
0.010229 -0.002139 0.00274 
0.009502 -0.00085 0.00372 
0.009718 -0.001088 0.003849 
0.009522 -0.000764 0.004014 
0.009502 -0.000934 0.003707 
0.009963 -0.001368 0.003907 
0.010219 -0.001688 0.003839 
0.010068 -0.00134 0.004252 
0.009963 -0.001573 0.003788 
0.009559 -0.000658 0.004344 
0.009851 -0.000947 0.00454 
0.009595 -0.000555 0.004651 
0.009559 -0.000731 0.004319 
0.009777 -0.001166 0.004117 
0.009522 -0.00084 0.004009 
0.009718 -0.001225 0.003799 
0.009777 -0.001023 0.004182 
0.010099 -0.001912 0.00338 
0.009883 -0.001576 0.003501 
0.010009 -0.001874 0.003148 
0.010099 -0.001674 0.003546 
0.009677 -0.001273 0.003504 
0.009488 -0.001012 0.003429 
0.009647 -0.001316 0.003234 
0.009677 -0.001144 0.003548 
0.009942 -0.001849 0.002926 
0.009782 -0.001592 0.002989 
0.009892 -0.001833 0.002714 
0.009942 -0.001668 0.003029 
0.009825 -0.00142 0.003312 
0.010009 -0.001668 0.003278 
0.009883 -0.001394 0.003595 
0.009825 -0.001582 0.003235 
0.0103 -0.002653 0.001722 
0.010246 -0.002775 0.001349 
0.01034 -0.002724 0.001679 
0.0103 -0.002847 0.001443 
0.010137 -0.002853 0.000977 
0.00998 -0.002887 0.000637 
0.010087 -0.00289 0.000828 
0.010137 -0.00298 0.000703 
0.010372 -0.002802 0.001574 
0.01022 -0.002889 0.001073 
0.010383 -0.00288 0.00139 
0.010372 -0.003001 0.001173 
0.010246 -0.002992 0.000909 
0.01034 -0.002924 0.001344 
0.010246 -0.002938 0.001062 
0.010246 -0.002834 0.001243 
0.009788 -0.002882 0.000352 
0.009586 -0.002846 0.00014 
0.009656 -0.002859 0.00021 
0.009788 -0.002946 0.000179 
0.009391 -0.002794 3e-06 
0.009586 -0.002899 6.1e-05 
0.009657 -0.002928 5.4e-05 
0.009437 -0.002799 3.8e-05 
0.010363 -0.002946 0.001123 
0.010076 -0.002945 0.000593 
0.01034 -0.003 0.000819 
0.010352 -0.003116 0.00056 
0.009604 -0.002836 0.000137 
0.010245 -0.00312 9.5e-05 
0.010562 -0.003149 0.000486 
0.00996 -0.002944 0.000301 
0.010062 -0.003053 2.9e-05 
0.009748 -0.002872 0.000215 
0.00989 -0.003008 3.4e-05 
0.009755 -0.002963 4.3e-05 
0.009504 -0.002812 8.2e-05 
0.01016 -0.003061 0.000409 
0.010382 -0.003067 0.000914 
0.01022 -0.003035 0.000692 
0.01016 -0.002929 0.000846 
0.009882 -0.002976 0.000232 
0.010087 -0.003005 0.000526 
0.00998 -0.002978 0.000399 
0.009883 -0.002895 0.000477 
0.010005 -0.002911 0.000637 
0.009756 -0.00288 0.000303 
0.00989 -0.002908 0.000425 
0.010005 -0.003015 0.000306 
0.009671 -0.000437 0.005012 
0.010117 -0.000753 0.005387 
0.0096 -0.000342 0.005057 
0.009674 -0.000347 0.00505 
0.010739 -0.001228 0.005659 
0.011461 -0.001941 0.005382 
0.011186 -0.001224 0.006218 
0.010745 -0.001634 0.005247 
0.010161 0.0 0.006066 
0.009958 -0.000421 0.00548 
0.010386 -0.000753 0.00575 
0.010117 -0.000866 0.005301 
0.010358 -0.000545 0.005952 
0.011837 -0.00269 0.004056 
0.011521 -0.003105 0.002114 
0.012427 -0.003042 0.003524 
0.011829 -0.003471 0.002479 
0.010714 -0.003099 0.000481 
0.011504 -0.003219 0.000978 
0.012412 -0.003878 0.001089 
0.011512 -0.003536 0.000603 
0.017653 -0.003338 0.007509 
0.013529 -0.004481 0.003052 
0.013144 -0.00342 0.002259 
0.013124 0.0 0.008924 
0.010742 -0.000572 0.006312 
0.01134 0.0 0.007444 
0.010743 -0.000564 0.006272 
0.012272 -0.003359 0.004084 
0.011187 -0.00165 0.005761 
0.01146 -0.002755 0.004391 
0.012326 -0.002159 0.00592 
0.01196 -0.001188 0.007023 
0.013787 -0.002554 0.006404 
0.012454 -0.001277 0.006829 
0.0119 -0.001353 0.006397 
0.011334 -0.00337 0.001612 
0.010257 -0.003037 0.000252 
0.010923 -0.003304 0.000473 
0.011329 -0.003071 0.003122 
0.011071 -0.00314 0.002244 
0.011326 -0.002886 0.002808 
0.010603 -0.003155 0.00083 
0.010816 -0.003138 0.001647 
0.010575 -0.003096 0.001218 
0.010606 -0.00296 0.001473 
0.010909 -0.00295 0.002005 
0.010499 -0.003035 0.000932 
0.010905 -0.003079 0.001354 
0.010929 -0.003253 0.001146 
0.010955 -0.002395 0.004306 
0.010424 -0.001596 0.004842 
0.010613 -0.002184 0.004114 
0.010953 -0.001823 0.004934 
0.009966 -0.000989 0.004861 
0.009595 -0.00059 0.004681 
0.009851 -0.001093 0.004477 
0.009968 -0.000862 0.004952 
0.010383 -0.002054 0.003871 
0.010068 -0.001574 0.004104 
0.010219 -0.001969 0.003623 
0.010383 -0.001713 0.004162 
0.010217 -0.001311 0.004648 
0.010613 -0.001755 0.004522 
0.010423 -0.001281 0.005095 
0.010217 -0.001582 0.00445 
0.010515 -0.002999 0.001514 
0.010539 -0.002837 0.002133 
0.01044 -0.002894 0.001694 
0.010516 -0.002748 0.001992 
0.010459 -0.002582 0.002688 
0.010301 -0.00226 0.003113 
0.010331 -0.002465 0.002627 
0.010459 -0.00227 0.003039 
0.010365 -0.002794 0.001785 
0.010324 -0.002607 0.002192 
0.010297 -0.002705 0.001813 
0.010365 -0.002565 0.002096 
0.010423 -0.002442 0.002534 
0.01044 -0.00265 0.002079 
0.010539 -0.002538 0.002566 
0.010423 -0.002712 0.002197 
0.010455 -0.002032 0.003596 
0.010623 -0.00237 0.003149 
0.010662 -0.002118 0.00382 
0.010455 -0.002375 0.003255 
0.010673 -0.002657 0.002522 
0.010579 -0.002855 0.001801 
0.01081 -0.002799 0.002357 
0.010673 -0.002983 0.001963 
0.010944 -0.002242 0.004022 
0.011073 -0.002676 0.003124 
0.011325 -0.002423 0.004139 
0.010945 -0.00276 0.003342 
0.010829 -0.002922 0.00256 
0.010662 -0.002536 0.003352 
0.010623 -0.002733 0.002682 
0.010829 -0.002503 0.003198 
0.009536 -0.002872 7.7e-05 
0.009717 -0.002922 0.000138 
0.009367 -0.0028 -2.1e-05 
0.009894 -0.002956 0.0003 
0.009825 -0.002938 0.000222 
0.009716 -0.002872 0.000256 
0.00963 -0.002888 5.8e-05 
0.009773 -0.002925 0.000158 
0.009731 -0.002914 9.9e-05 
0.00963 -0.00286 0.000132 
0.009663 -0.002865 0.000182 
0.009511 -0.00284 4.1e-05 
0.009536 -0.002839 8.5e-05 
0.009665 -0.002905 0.000105 
0.010046 -0.002966 0.00054 
0.010162 -0.002943 0.000835 
0.010088 -0.002944 0.000651 
0.010046 -0.002864 0.000765 
0.010233 -0.00288 0.00116 
0.010257 -0.002774 0.001489 
0.010213 -0.002822 0.001213 
0.010233 -0.002717 0.001405 
0.010112 -0.002913 0.00073 
0.010168 -0.002855 0.000979 
0.010125 -0.002879 0.000781 
0.010112 -0.002798 0.000913 
0.01017 -0.002764 0.001138 
0.010088 -0.002833 0.000855 
0.010162 -0.002809 0.001078 
0.01017 -0.0029 0.000925 
0.009819 -0.002927 0.000149 
0.009926 -0.002935 0.000276 
0.009889 -0.002932 0.000192 
0.009819 -0.002879 0.000243 
0.010016 -0.002925 0.000434 
0.010085 -0.002896 0.000615 
0.010049 -0.002908 0.000474 
0.010016 -0.002844 0.000565 
0.009945 -0.002931 0.000228 
0.010017 -0.002917 0.000355 
0.00999 -0.002924 0.000254 
0.009945 -0.002872 0.000319 
0.009977 -0.00286 0.000431 
0.009889 -0.002878 0.000286 
0.009926 -0.002871 0.000391 
0.009977 -0.002928 0.000321 
0.01006 -0.002824 0.000724 
0.00997 -0.002862 0.000518 
0.010024 -0.002849 0.000671 
0.01006 -0.002921 0.000569 
0.009859 -0.002877 0.000337 
0.009732 -0.002874 0.000191 
0.009773 -0.002876 0.000267 
0.009859 -0.002934 0.000219 
0.009971 -0.00287 0.000592 
0.009825 -0.00288 0.000365 
0.009893 -0.002883 0.000485 
0.009971 -0.002954 0.000411 
0.009909 -0.002944 0.000305 
0.010024 -0.002942 0.000501 
0.00997 -0.002938 0.000378 
0.009909 -0.002875 0.000452 
0.010237 -0.002629 0.001797 
0.010177 -0.002451 0.002065 
0.010186 -0.002564 0.001751 
0.010237 -0.002435 0.002003 
0.010087 -0.002251 0.002277 
0.009977 -0.002039 0.002426 
0.010039 -0.00221 0.002139 
0.010087 -0.002068 0.002413 
0.010143 -0.00251 0.001685 
0.010081 -0.002351 0.001863 
0.010109 -0.002466 0.001605 
0.010143 -0.00235 0.001826 
0.010124 -0.002222 0.002111 
0.010186 -0.002388 0.001921 
0.010177 -0.002258 0.002237 
0.010124 -0.002395 0.001969 
0.009855 -0.001825 0.002514 
0.009729 -0.001618 0.002545 
0.009827 -0.001823 0.002323 
0.009855 -0.001682 0.002583 
0.009605 -0.001422 0.00253 
0.009486 -0.001241 0.002477 
0.009602 -0.001455 0.002324 
0.009605 -0.001324 0.002552 
0.009808 -0.001824 0.002142 
0.009705 -0.001652 0.002153 
0.009794 -0.00183 0.001969 
0.009808 -0.001707 0.00219 
0.009714 -0.001524 0.002379 
0.009827 -0.001693 0.00238 
0.009729 -0.001498 0.002588 
0.009714 -0.001634 0.002343 
0.01008 -0.00243 0.001517 
0.010021 -0.002289 0.001637 
0.010058 -0.002402 0.001424 
0.01008 -0.002297 0.001617 
0.00995 -0.002141 0.001725 
0.00987 -0.00199 0.00178 
0.009934 -0.002131 0.001592 
0.00995 -0.002022 0.00179 
0.010041 -0.00238 0.001327 
0.009986 -0.002255 0.001407 
0.010028 -0.002364 0.00123 
0.010041 -0.00227 0.0014 
0.010001 -0.002154 0.001592 
0.010058 -0.002281 0.001509 
0.010021 -0.002162 0.00172 
0.010001 -0.002269 0.001522 
0.009886 -0.001873 0.001991 
0.009972 -0.002025 0.001939 
0.009908 -0.001869 0.002161 
0.009886 -0.001993 0.001933 
0.010047 -0.002175 0.00185 
0.010109 -0.00232 0.001724 
0.010081 -0.002195 0.001981 
0.010047 -0.002316 0.001752 
0.009937 -0.001869 0.00234 
0.010039 -0.002047 0.002251 
0.009977 -0.001873 0.002527 
0.009937 -0.002016 0.002257 
0.010001 -0.002179 0.002 
0.009908 -0.002002 0.002092 
0.009972 -0.002157 0.001861 
0.010001 -0.002033 0.002092 
0.010025 -0.002915 0.000272 
0.010071 -0.002888 0.000388 
0.010054 -0.002905 0.000282 
0.010025 -0.002853 0.000354 
0.010104 -0.002847 0.000511 
0.010122 -0.002793 0.000636 
0.010114 -0.002828 0.000502 
0.010104 -0.002767 0.000601 
0.010078 -0.002893 0.000285 
0.010106 -0.002858 0.000384 
0.010097 -0.002882 0.000282 
0.010078 -0.002832 0.000357 
0.01009 -0.002802 0.000471 
0.010054 -0.002843 0.000359 
0.010071 -0.002816 0.000476 
0.01009 -0.002872 0.00039 
0.010126 -0.002726 0.000758 
0.010117 -0.002647 0.000873 
0.010125 -0.002705 0.000721 
0.010126 -0.002634 0.000845 
0.010095 -0.002557 0.000976 
0.010062 -0.002458 0.001063 
0.010088 -0.00254 0.000908 
0.010095 -0.002461 0.001049 
0.010124 -0.002687 0.000679 
0.010108 -0.002611 0.000764 
0.010124 -0.002673 0.000633 
0.010124 -0.002607 0.000747 
0.010112 -0.002539 0.000891 
0.010125 -0.002618 0.000798 
0.010117 -0.002551 0.000954 
0.010112 -0.002627 0.00082 
0.010114 -0.002872 0.000273 
0.01013 -0.002832 0.000355 
0.010128 -0.002862 0.00026 
0.010114 -0.002814 0.000335 
0.010137 -0.002783 0.000436 
0.010135 -0.002726 0.000514 
0.010143 -0.002773 0.000406 
0.010137 -0.002718 0.000498 
0.010141 -0.002854 0.000244 
0.010149 -0.002813 0.00031 
0.010152 -0.002848 0.000225 
0.010141 -0.002803 0.000297 
0.01014 -0.002763 0.000392 
0.010128 -0.002808 0.000317 
0.01013 -0.00277 0.000418 
0.01014 -0.002821 0.000334 
0.010132 -0.002666 0.000616 
0.01013 -0.002726 0.000531 
0.010129 -0.002676 0.000657 
0.010132 -0.002739 0.000551 
0.010119 -0.002779 0.00044 
0.010097 -0.002823 0.000348 
0.010106 -0.00279 0.000458 
0.010119 -0.002844 0.000372 
0.010126 -0.00269 0.000694 
0.010114 -0.002751 0.000584 
0.010122 -0.002706 0.000726 
0.010126 -0.002772 0.000613 
0.010123 -0.002811 0.000485 
0.010129 -0.002754 0.000585 
0.01013 -0.002796 0.000463 
0.010123 -0.002738 0.00056 
0.010072 -0.002372 0.001219 
0.010104 -0.002474 0.001124 
0.010085 -0.002384 0.00131 
0.010072 -0.002475 0.001145 
0.010124 -0.002568 0.001012 
0.010128 -0.002653 0.000886 
0.010132 -0.00259 0.001065 
0.010124 -0.002671 0.00092 
0.010103 -0.002402 0.001399 
0.010131 -0.002515 0.001265 
0.010124 -0.002426 0.001484 
0.010103 -0.002525 0.0013 
0.010116 -0.002605 0.0011 
0.010085 -0.002497 0.001224 
0.010104 -0.002578 0.00104 
0.010116 -0.002492 0.001197 
0.010118 -0.002725 0.00075 
0.01009 -0.002785 0.00061 
0.010111 -0.002747 0.000765 
0.010118 -0.002817 0.000649 
0.010048 -0.002831 0.000472 
0.00999 -0.002864 0.000341 
0.010017 -0.002846 0.000458 
0.010048 -0.002903 0.000376 
0.0101 -0.002772 0.000768 
0.010049 -0.002825 0.000595 
0.010085 -0.002798 0.000755 
0.0101 -0.002869 0.000642 
0.010073 -0.002888 0.000499 
0.010111 -0.002842 0.000652 
0.01009 -0.002867 0.00051 
0.010073 -0.002804 0.000609 
0.01015 -0.002456 0.001564 
0.010169 -0.002577 0.001374 
0.010182 -0.002493 0.001633 
0.01015 -0.002601 0.001427 
0.010161 -0.002681 0.001164 
0.010125 -0.002764 0.000944 
0.010168 -0.002721 0.001164 
0.010161 -0.002811 0.001004 
0.010217 -0.002538 0.001687 
0.010213 -0.002665 0.001421 
0.010257 -0.002591 0.00172 
0.010217 -0.002708 0.001494 
0.010191 -0.002767 0.001231 
0.010182 -0.002651 0.001471 
0.010169 -0.002718 0.001223 
0.010191 -0.002618 0.001409 
0.01013 -0.002844 0.000809 
0.010151 -0.00277 0.001006 
0.010131 -0.00281 0.000816 
0.01013 -0.002731 0.000952 
0.010149 -0.002674 0.001195 
0.010124 -0.00256 0.001368 
0.010131 -0.002636 0.001153 
0.010149 -0.002543 0.001325 
0.01013 -0.002779 0.000808 
0.010132 -0.002699 0.00096 
0.010128 -0.002751 0.000788 
0.01013 -0.002675 0.000919 
0.010141 -0.002615 0.001111 
0.010131 -0.002702 0.000943 
0.010151 -0.002646 0.001145 
0.010141 -0.002732 0.00099 
0.009739 0.0 0.005495 
0.009375 -0.00025 0.004622 
0.009469 0.0 0.005031 
0.009375 -0.000225 0.004676 
0.00934 -0.000348 0.004388 
0.009315 -0.000465 0.004107 
0.009338 -0.000286 0.004397 
0.009092 0.0 0.004124 
0.008982 -0.00017 0.003569 
0.009 0.0 0.003833 
0.008982 -0.00016 0.003618 
0.009315 -0.000583 0.003823 
0.009134 -0.000392 0.003628 
0.009313 -0.000696 0.003561 
0.009315 -0.000554 0.003815 
0.009126 -0.000284 0.003828 
0.009315 -0.000447 0.004082 
0.009044 -0.000214 0.003906 
0.009129 -0.000228 0.003866 
0.008852 0.0 0.003183 
0.008815 -0.000135 0.002755 
0.008811 0.0 0.002959 
0.008815 -0.000131 0.002798 
0.009323 -0.000791 0.003299 
0.009177 -0.000604 0.003146 
0.009332 -0.000874 0.003057 
0.009323 -0.000735 0.003292 
0.009053 -0.000441 0.002969 
0.008937 -0.00031 0.002803 
0.009079 -0.00054 0.002767 
0.009053 -0.00043 0.002948 
0.009345 -0.000948 0.002824 
0.009222 -0.000778 0.002702 
0.009358 -0.001014 0.002604 
0.009345 -0.000886 0.002818 
0.0092 -0.000656 0.002901 
0.009332 -0.000815 0.003048 
0.009177 -0.000572 0.003122 
0.0092 -0.000695 0.002918 
0.008907 -0.000222 0.002956 
0.009021 -0.000336 0.003153 
0.008831 -0.000166 0.003038 
0.00891 -0.000181 0.002987 
0.00916 -0.000474 0.00336 
0.009313 -0.000648 0.003542 
0.009134 -0.000381 0.003578 
0.00916 -0.000505 0.003373 
0.008902 0.0 0.003421 
0.008878 -0.000175 0.00327 
0.009 -0.000251 0.003399 
0.009021 -0.000344 0.003186 
0.009001 -0.000206 0.003385 
0.009212 0.0 0.00444 
0.009154 -0.000234 0.004199 
0.009374 -0.001075 0.002395 
0.009269 -0.000923 0.002292 
0.00939 -0.001131 0.002196 
0.009374 -0.001014 0.002389 
0.009173 -0.000784 0.002174 
0.009083 -0.000657 0.002046 
0.009203 -0.000854 0.00199 
0.009173 -0.000749 0.002154 
0.009408 -0.001184 0.002006 
0.009318 -0.001047 0.001916 
0.009427 -0.001234 0.001826 
0.009408 -0.001127 0.002001 
0.009293 -0.000941 0.002087 
0.00939 -0.001072 0.00219 
0.009269 -0.000876 0.002278 
0.009293 -0.000987 0.0021 
0.009001 -0.000539 0.001908 
0.008923 -0.000432 0.00177 
0.009039 -0.000617 0.001741 
0.009001 -0.000522 0.001884 
0.008855 -0.000329 0.001623 
0.008784 -0.00024 0.001489 
0.008894 -0.000411 0.001473 
0.008854 -0.000326 0.001601 
0.009077 -0.000691 0.001576 
0.009005 -0.000586 0.001449 
0.009114 -0.000761 0.001416 
0.009077 -0.00067 0.001553 
0.008965 -0.000497 0.001582 
0.009039 -0.000598 0.001716 
0.008923 -0.000421 0.001741 
0.008966 -0.00051 0.001607 
0.009447 -0.001283 0.001654 
0.009368 -0.00116 0.001571 
0.009468 -0.00133 0.00149 
0.009447 -0.001231 0.001649 
0.009293 -0.001044 0.001476 
0.009221 -0.000934 0.001372 
0.009323 -0.001102 0.001318 
0.009293 -0.00101 0.001461 
0.00949 -0.001376 0.001334 
0.009421 -0.001266 0.001255 
0.009514 -0.001422 0.001184 
0.00949 -0.001331 0.001329 
0.009394 -0.001173 0.001399 
0.009468 -0.001282 0.001485 
0.009368 -0.001118 0.00156 
0.009394 -0.001213 0.00141 
0.009187 -0.000841 0.001512 
0.009263 -0.000948 0.001625 
0.009152 -0.000774 0.001677 
0.009187 -0.000869 0.001532 
0.009343 -0.001061 0.001728 
0.009427 -0.00118 0.001821 
0.009318 -0.001002 0.001904 
0.009343 -0.001105 0.00174 
0.009118 -0.000704 0.001847 
0.009203 -0.000818 0.001971 
0.009083 -0.000631 0.002021 
0.009118 -0.000731 0.001868 
0.009233 -0.00092 0.001812 
0.009152 -0.000802 0.001698 
0.009263 -0.000983 0.001641 
0.009233 -0.000884 0.001795 
0.008728 -0.000165 0.001338 
0.008769 -0.000232 0.001194 
0.00873 -0.000134 0.001318 
0.008654 0.0 0.001183 
0.008665 -9.9e-05 0.000884 
0.008648 0.0 0.001025 
0.008665 -9.9e-05 0.000917 
0.008817 -0.000305 0.001045 
0.008755 -0.000226 0.000918 
0.008858 -0.000383 0.000908 
0.008816 -0.000304 0.001024 
0.008714 -0.000158 0.001026 
0.008769 -0.000229 0.001165 
0.008651 -0.000116 0.001098 
0.008716 -0.000131 0.001047 
0.008639 0.0 0.000627 
0.008655 -9.5e-05 0.00034 
0.008635 0.0 0.000476 
0.008654 -9.6e-05 0.000372 
0.008905 -0.000458 0.000763 
0.008849 -0.000375 0.000634 
0.00895 -0.000533 0.000625 
0.008906 -0.000453 0.000738 
0.008797 -0.000291 0.000498 
0.008741 -0.000218 0.000374 
0.008842 -0.000369 0.000368 
0.008797 -0.000293 0.000477 
0.008996 -0.000607 0.000487 
0.008942 -0.000525 0.000361 
0.009041 -0.00068 0.000353 
0.008996 -0.000601 0.000463 
0.008896 -0.000446 0.000471 
0.00895 -0.000527 0.000599 
0.008849 -0.000372 0.000606 
0.008896 -0.00045 0.000496 
0.0087 -0.000152 0.000477 
0.008749 -0.000219 0.00061 
0.008637 -0.000111 0.000547 
0.008701 -0.000126 0.000497 
0.008805 -0.000294 0.000748 
0.008858 -0.000378 0.000876 
0.008755 -0.000223 0.000878 
0.008805 -0.000301 0.00077 
0.008641 0.0 0.00078 
0.00864 -0.000113 0.000705 
0.008706 -0.000156 0.000775 
0.008748 -0.000221 0.000639 
0.008708 -0.000127 0.000756 
0.009538 -0.001468 0.001042 
0.009476 -0.001368 0.000965 
0.009563 -0.001514 0.000906 
0.009538 -0.00143 0.001037 
0.009416 -0.001271 0.000879 
0.009357 -0.001178 0.000784 
0.009448 -0.001326 0.000744 
0.009416 -0.001245 0.000867 
0.009589 -0.00156 0.000777 
0.009534 -0.001469 0.0007 
0.009615 -0.001607 0.000654 
0.009589 -0.001529 0.000772 
0.009505 -0.00139 0.000821 
0.009563 -0.001479 0.000901 
0.009476 -0.001336 0.000956 
0.009505 -0.001419 0.00083 
0.0093 -0.001088 0.000682 
0.009245 -0.001 0.000574 
0.009338 -0.00115 0.00055 
0.0093 -0.001071 0.000665 
0.009191 -0.000916 0.000461 
0.009139 -0.000833 0.000343 
0.009234 -0.000984 0.000331 
0.009191 -0.000907 0.000441 
0.009376 -0.001213 0.000423 
0.009326 -0.001132 0.000317 
0.009415 -0.001276 0.000301 
0.009376 -0.001201 0.000408 
0.009285 -0.001056 0.000426 
0.009338 -0.001136 0.000534 
0.009245 -0.000988 0.000555 
0.009285 -0.001066 0.000443 
0.009643 -0.001654 0.000537 
0.009595 -0.001573 0.00046 
0.009672 -0.001702 0.000427 
0.009643 -0.001631 0.000534 
0.009547 -0.001493 0.000376 
0.009501 -0.001415 0.000284 
0.009582 -0.00155 0.000265 
0.009547 -0.001479 0.000367 
0.009701 -0.001752 0.000323 
0.009659 -0.001679 0.000245 
0.009731 -0.001802 0.000225 
0.009701 -0.001736 0.000321 
0.009626 -0.001611 0.000345 
0.009672 -0.001683 0.000424 
0.009595 -0.001554 0.000454 
0.009626 -0.001625 0.00035 
0.009464 -0.001343 0.000389 
0.009513 -0.00142 0.000483 
0.009428 -0.00128 0.00051 
0.009464 -0.001355 0.0004 
0.009564 -0.001499 0.000571 
0.009615 -0.00158 0.00065 
0.009534 -0.001444 0.000693 
0.009564 -0.001521 0.000577 
0.009392 -0.001218 0.000637 
0.009448 -0.001303 0.000733 
0.009357 -0.001157 0.000769 
0.009392 -0.001237 0.000651 
0.00948 -0.001381 0.000616 
0.009428 -0.001296 0.000523 
0.009513 -0.001437 0.000493 
0.00948 -0.001361 0.000605 
0.009095 -0.000755 0.000453 
0.009149 -0.000837 0.000573 
0.009051 -0.000683 0.000588 
0.009095 -0.000762 0.000476 
0.009205 -0.00092 0.00069 
0.009263 -0.001006 0.000801 
0.009165 -0.000852 0.000829 
0.009205 -0.000934 0.00071 
0.009007 -0.00061 0.000726 
0.009065 -0.000696 0.00085 
0.008963 -0.000537 0.000867 
0.009007 -0.000619 0.000751 
0.009107 -0.000778 0.000733 
0.009051 -0.000691 0.000612 
0.009149 -0.000847 0.000595 
0.009107 -0.000766 0.00071 
0.009323 -0.001095 0.000907 
0.009384 -0.001187 0.001006 
0.009288 -0.001033 0.001051 
0.009323 -0.001118 0.000923 
0.009448 -0.001282 0.001097 
0.009514 -0.001381 0.001179 
0.009421 -0.001228 0.001245 
0.009448 -0.001317 0.001107 
0.009254 -0.00097 0.001199 
0.009323 -0.00107 0.001303 
0.009221 -0.000907 0.001353 
0.009254 -0.000997 0.001217 
0.009354 -0.001159 0.001165 
0.009288 -0.001058 0.001067 
0.009384 -0.001216 0.001019 
0.009354 -0.001129 0.001152 
0.008919 -0.000463 0.001012 
0.008981 -0.000552 0.001141 
0.008874 -0.000389 0.001156 
0.008919 -0.000471 0.001037 
0.009046 -0.000644 0.001269 
0.009114 -0.00074 0.001393 
0.009005 -0.000571 0.001423 
0.009046 -0.00066 0.001293 
0.008833 -0.000309 0.001308 
0.008894 -0.000402 0.001441 
0.008784 -0.000238 0.001447 
0.008832 -0.000319 0.00133 
0.008939 -0.000488 0.001317 
0.008874 -0.000396 0.001185 
0.008981 -0.000563 0.001167 
0.008939 -0.000477 0.001292 
0.009152 -0.00083 0.001259 
0.009086 -0.000731 0.001142 
0.009189 -0.000896 0.001108 
0.009152 -0.000808 0.001238 
0.009023 -0.000636 0.001019 
0.008963 -0.000546 0.000893 
0.009065 -0.000707 0.000874 
0.009023 -0.000624 0.000995 
0.009226 -0.000961 0.000961 
0.009165 -0.000867 0.00085 
0.009263 -0.001024 0.000819 
0.009226 -0.000941 0.000942 
0.009126 -0.000784 0.000972 
0.009189 -0.000875 0.001088 
0.009086 -0.000714 0.001118 
0.009126 -0.0008 0.000994 
0.00866 0.0 0.001344 
0.008657 -0.000118 0.001262 
0.008745 -0.000169 0.001605 
0.008809 -0.000248 0.001754 
0.008678 -0.000125 0.00168 
0.008747 -0.00014 0.001628 
0.008884 -0.000338 0.001909 
0.00896 -0.000443 0.002052 
0.008837 -0.000262 0.002062 
0.008884 -0.000351 0.00193 
0.008696 0.0 0.00195 
0.008691 -0.000129 0.001857 
0.00877 -0.00018 0.001941 
0.008809 -0.000252 0.001784 
0.008772 -0.000147 0.001922 
0.009048 -0.000555 0.002202 
0.009142 -0.000676 0.002343 
0.009012 -0.000475 0.002384 
0.009048 -0.000578 0.002226 
0.009246 -0.000808 0.002477 
0.009358 -0.000952 0.002598 
0.009222 -0.000735 0.002683 
0.009246 -0.000853 0.002492 
0.008979 -0.000387 0.002577 
0.009079 -0.000515 0.002736 
0.008937 -0.000304 0.002754 
0.008978 -0.000406 0.002598 
0.009112 -0.000627 0.00256 
0.009012 -0.000494 0.002413 
0.009142 -0.000709 0.002365 
0.009112 -0.000598 0.002539 
0.008765 0.0 0.002626 
0.008753 -0.000146 0.002514 
0.008848 -0.000206 0.002613 
0.008882 -0.000286 0.002436 
0.008849 -0.000168 0.002595 
0.008741 0.0 0.002429 
0.008732 -0.000116 0.002067 
0.00872 0.0 0.002238 
0.008732 -0.000115 0.002105 
0.008924 -0.00037 0.002254 
0.008837 -0.000267 0.002107 
0.00896 -0.000458 0.002084 
0.008924 -0.000364 0.002231 
0.008801 -0.000188 0.002236 
0.008882 -0.00028 0.002403 
0.00873 -0.00014 0.002315 
0.008804 -0.000156 0.002263 
0.008684 0.0 0.001775 
0.008688 -0.000105 0.001452 
0.008673 0.0 0.001605 
0.008688 -0.000105 0.001488 
0.009643 -0.002899 -8e-06 
0.009667 -0.002899 -4.6e-05 
0.009677 -0.002907 -6.1e-05 
0.009633 -0.002889 -1.5e-05 
0.009717 -0.002917 -0.000102 
0.009732 -0.002921 -0.000104 
0.009679 -0.002902 -0.000108 
0.009714 -0.002916 -7e-05 
0.009747 -0.002926 -0.000105 
0.009762 -0.00293 -0.000105 
0.009714 -0.002914 -0.000103 
0.009698 -0.002908 -0.000105 
0.009665 -0.0029 -5.9e-05 
0.009653 -0.002894 -7.7e-05 
0.009697 -0.00291 -6.8e-05 
0.00976 -0.002928 -0.000134 
0.009806 -0.00294 -0.000154 
0.009813 -0.002943 -0.00016 
0.00976 -0.002924 -0.000156 
0.009852 -0.002951 -0.000163 
0.009898 -0.00296 -0.000161 
0.009899 -0.002963 -0.000176 
0.009852 -0.002942 -0.000166 
0.009861 -0.002957 -0.00018 
0.009902 -0.002966 -0.000187 
0.009905 -0.00297 -0.000195 
0.009861 -0.002952 -0.000189 
0.009856 -0.002947 -0.000179 
0.009813 -0.002938 -0.000175 
0.009806 -0.002934 -0.000166 
0.009856 -0.002954 -0.000173 
0.009808 -0.002944 -0.000137 
0.00984 -0.002954 -0.000166 
0.00985 -0.002957 -0.000165 
0.009808 -0.002943 -0.000165 
0.009874 -0.002964 -0.000187 
0.00991 -0.002973 -0.0002 
0.009915 -0.002976 -0.000203 
0.009874 -0.002961 -0.000201 
0.00989 -0.00297 -0.000187 
0.00992 -0.002979 -0.000205 
0.009926 -0.002982 -0.000204 
0.00989 -0.002969 -0.000204 
0.009882 -0.002965 -0.000203 
0.00985 -0.002957 -0.000187 
0.00984 -0.002952 -0.000187 
0.009882 -0.002967 -0.000188 
0.009867 -0.002956 -0.000196 
0.00983 -0.002948 -0.000185 
0.009821 -0.002943 -0.000181 
0.009867 -0.00296 -0.000184 
0.009795 -0.002939 -0.000165 
0.009762 -0.002929 -0.000138 
0.009747 -0.002924 -0.000138 
0.009795 -0.00294 -0.000138 
0.009771 -0.002929 -0.000161 
0.009732 -0.002918 -0.000137 
0.009717 -0.002913 -0.000136 
0.009771 -0.002932 -0.000136 
0.009783 -0.002936 -0.000138 
0.009821 -0.002947 -0.000163 
0.00983 -0.00295 -0.000165 
0.009783 -0.002934 -0.000164 
0.009943 -0.002966 -0.000149 
0.009986 -0.002969 -0.000126 
0.009983 -0.002974 -0.000153 
0.009943 -0.00295 -0.000134 
0.010026 -0.002967 -9.5e-05 
0.010062 -0.00296 -5.5e-05 
0.010057 -0.00297 -9.6e-05 
0.010026 -0.002942 -6.6e-05 
0.010019 -0.002981 -0.000156 
0.010053 -0.002979 -0.00013 
0.01005 -0.002987 -0.000158 
0.010019 -0.002964 -0.000136 
0.010022 -0.002954 -0.000104 
0.009983 -0.002957 -0.000135 
0.009986 -0.002948 -0.000104 
0.010022 -0.002974 -0.000128 
0.010093 -0.002949 -9e-06 
0.010119 -0.002931 4.1e-05 
0.010116 -0.002948 -1.3e-05 
0.010093 -0.002916 3e-05 
0.01014 -0.002908 9.5e-05 
0.010155 -0.002878 0.00015 
0.010156 -0.002905 8.4e-05 
0.01014 -0.002868 0.00014 
0.010137 -0.002948 -1.8e-05 
0.010156 -0.002928 2.6e-05 
0.010155 -0.002948 -2.3e-05 
0.010137 -0.002918 1.9e-05 
0.010138 -0.002894 7.5e-05 
0.010116 -0.002916 2.5e-05 
0.010119 -0.002894 8.4e-05 
0.010138 -0.002929 3.4e-05 
0.010079 -0.002992 -0.000159 
0.010107 -0.002987 -0.000132 
0.010105 -0.002997 -0.000159 
0.010079 -0.002975 -0.000136 
0.010132 -0.002979 -0.000101 
0.010154 -0.002966 -6.6e-05 
0.010153 -0.002982 -0.000102 
0.010132 -0.002956 -7e-05 
0.010128 -0.003002 -0.000159 
0.010151 -0.002995 -0.000133 
0.01015 -0.003007 -0.000158 
0.010128 -0.002986 -0.000135 
0.01013 -0.002972 -0.000105 
0.010105 -0.002981 -0.000136 
0.010107 -0.002968 -0.000105 
0.01013 -0.002991 -0.000132 
0.010135 -0.002938 -2.9e-05 
0.01011 -0.002953 -6.9e-05 
0.010113 -0.002936 -2.6e-05 
0.010135 -0.002964 -6.3e-05 
0.010082 -0.002963 -0.000105 
0.01005 -0.00297 -0.000136 
0.010053 -0.002958 -0.000104 
0.010082 -0.002983 -0.000131 
0.010089 -0.002934 -2.3e-05 
0.010057 -0.002946 -6.6e-05 
0.010062 -0.002932 -2.1e-05 
0.010089 -0.002962 -5.7e-05 
0.010085 -0.002973 -9.7e-05 
0.010113 -0.002963 -6e-05 
0.01011 -0.002976 -9.9e-05 
0.010085 -0.002949 -6.7e-05 
0.009961 -0.002993 -0.000217 
0.009989 -0.003001 -0.000226 
0.009992 -0.003004 -0.000226 
0.009961 -0.002993 -0.000225 
0.010017 -0.003008 -0.00023 
0.010046 -0.003014 -0.000229 
0.010046 -0.003017 -0.000233 
0.010017 -0.003005 -0.000228 
0.010021 -0.003014 -0.000232 
0.010047 -0.003021 -0.000235 
0.010048 -0.003024 -0.000235 
0.010021 -0.003014 -0.000233 
0.010019 -0.003009 -0.000232 
0.009992 -0.003003 -0.00023 
0.009989 -0.002999 -0.000229 
0.010019 -0.003011 -0.000232 
0.010073 -0.003018 -0.000223 
0.0101 -0.00302 -0.000212 
0.010099 -0.003025 -0.000222 
0.010073 -0.003011 -0.000212 
0.010125 -0.00302 -0.000197 
0.010148 -0.003017 -0.000178 
0.010146 -0.003026 -0.000194 
0.010125 -0.003009 -0.000178 
0.010122 -0.003033 -0.00022 
0.010145 -0.003034 -0.000207 
0.010143 -0.00304 -0.000216 
0.010122 -0.003027 -0.000205 
0.010123 -0.003019 -0.000193 
0.010099 -0.003019 -0.000209 
0.0101 -0.003011 -0.000197 
0.010123 -0.003027 -0.00021 
0.010073 -0.003033 -0.000235 
0.010097 -0.003039 -0.000234 
0.010096 -0.003042 -0.000234 
0.010073 -0.003033 -0.000231 
0.010119 -0.003043 -0.00023 
0.010141 -0.003046 -0.000222 
0.01014 -0.003051 -0.000225 
0.010119 -0.00304 -0.000219 
0.010118 -0.003051 -0.00023 
0.010139 -0.003055 -0.000226 
0.010137 -0.003059 -0.000225 
0.010118 -0.003051 -0.000222 
0.010118 -0.003046 -0.000222 
0.010096 -0.003042 -0.000227 
0.010097 -0.003037 -0.000227 
0.010118 -0.003047 -0.000231 
0.01012 -0.003034 -0.000213 
0.010097 -0.003032 -0.000223 
0.010098 -0.003026 -0.000218 
0.01012 -0.003038 -0.000226 
0.010073 -0.003028 -0.00023 
0.010048 -0.003023 -0.000233 
0.010047 -0.003019 -0.000232 
0.010073 -0.00303 -0.000236 
0.010073 -0.003018 -0.000221 
0.010046 -0.003014 -0.000228 
0.010046 -0.003009 -0.000222 
0.010073 -0.003022 -0.00023 
0.010073 -0.003026 -0.000234 
0.010098 -0.00303 -0.000229 
0.010097 -0.003035 -0.000233 
0.010073 -0.003023 -0.000227 
0.010127 -0.002998 -0.000159 
0.010101 -0.003002 -0.000181 
0.010103 -0.002992 -0.000161 
0.010127 -0.003011 -0.00018 
0.010074 -0.003004 -0.000199 
0.010045 -0.003003 -0.000213 
0.010046 -0.002996 -0.0002 
0.010074 -0.003012 -0.000213 
0.010077 -0.002986 -0.000162 
0.010047 -0.002988 -0.000184 
0.010048 -0.002979 -0.000163 
0.010077 -0.003 -0.000181 
0.010075 -0.003006 -0.000199 
0.010103 -0.003006 -0.000181 
0.010101 -0.003013 -0.000199 
0.010075 -0.002995 -0.000183 
0.010016 -0.003 -0.000222 
0.009986 -0.002995 -0.000226 
0.009984 -0.00299 -0.00022 
0.010016 -0.003004 -0.000226 
0.009956 -0.002989 -0.000224 
0.009926 -0.002981 -0.000216 
0.00992 -0.002977 -0.000215 
0.009956 -0.00299 -0.000217 
0.009948 -0.00298 -0.000215 
0.009915 -0.002973 -0.000212 
0.00991 -0.002968 -0.000207 
0.009948 -0.002984 -0.000212 
0.009952 -0.002987 -0.000216 
0.009984 -0.002995 -0.000221 
0.009986 -0.002998 -0.000225 
0.009952 -0.002984 -0.000221 
0.010016 -0.002972 -0.000162 
0.00998 -0.002972 -0.000182 
0.009981 -0.002965 -0.000161 
0.010016 -0.002986 -0.000178 
0.009943 -0.002969 -0.000194 
0.009905 -0.002964 -0.000199 
0.009902 -0.002958 -0.000188 
0.009943 -0.002977 -0.000197 
0.009942 -0.002957 -0.000159 
0.009899 -0.002953 -0.000174 
0.009898 -0.002947 -0.000155 
0.009942 -0.00297 -0.000169 
0.009942 -0.002974 -0.000185 
0.009981 -0.002979 -0.000174 
0.00998 -0.002983 -0.000191 
0.009942 -0.002963 -0.000179 
0.009945 -0.002981 -0.000206 
0.009981 -0.002987 -0.000205 
0.009982 -0.002991 -0.000214 
0.009945 -0.002974 -0.000206 
0.010015 -0.002992 -0.000196 
0.010048 -0.002993 -0.00018 
0.010047 -0.002999 -0.000198 
0.010015 -0.00298 -0.000183 
0.010015 -0.003001 -0.000219 
0.010046 -0.003005 -0.000212 
0.010045 -0.003009 -0.000222 
0.010015 -0.002994 -0.000213 
0.010015 -0.002987 -0.0002 
0.009982 -0.002984 -0.000211 
0.009981 -0.002979 -0.000198 
0.010015 -0.002996 -0.000209 
0.010163 -0.002843 0.000205 
0.010166 -0.002802 0.000257 
0.010174 -0.00284 0.000183 
0.010163 -0.002798 0.000251 
0.010163 -0.002756 0.000306 
0.010154 -0.002705 0.000349 
0.01017 -0.002755 0.000271 
0.010163 -0.002708 0.000349 
0.010183 -0.002839 0.000161 
0.010183 -0.0028 0.000201 
0.010193 -0.00284 0.000138 
0.010183 -0.0028 0.000201 
0.010174 -0.002757 0.000271 
0.010174 -0.002798 0.000226 
0.010166 -0.002755 0.000302 
0.010174 -0.0028 0.000229 
0.010141 -0.002649 0.000386 
0.010122 -0.00259 0.000416 
0.010147 -0.002653 0.000339 
0.010141 -0.002602 0.000425 
0.0101 -0.002528 0.000437 
0.010074 -0.002463 0.000449 
0.010108 -0.002538 0.000378 
0.0101 -0.002483 0.000468 
0.010155 -0.002659 0.000294 
0.010137 -0.002606 0.000312 
0.010163 -0.002667 0.000251 
0.010155 -0.00262 0.000327 
0.010129 -0.002555 0.000395 
0.010147 -0.00261 0.000375 
0.010122 -0.002543 0.000451 
0.010129 -0.002597 0.000362 
0.010203 -0.002842 0.000116 
0.0102 -0.002805 0.000147 
0.010212 -0.002846 9.5e-05 
0.010203 -0.002809 0.000153 
0.010194 -0.002765 0.000173 
0.010184 -0.002723 0.000195 
0.010203 -0.002773 0.000144 
0.010194 -0.002733 0.000207 
0.010221 -0.002851 7.5e-05 
0.010218 -0.002817 9.8e-05 
0.01023 -0.002858 5.6e-05 
0.010221 -0.002825 0.000108 
0.010209 -0.002781 0.000155 
0.010212 -0.002816 0.00013 
0.0102 -0.002773 0.000182 
0.010209 -0.002811 0.000122 
0.010176 -0.00268 0.000264 
0.010186 -0.002724 0.00024 
0.010168 -0.00267 0.000305 
0.010176 -0.002715 0.000231 
0.010192 -0.002766 0.000211 
0.010193 -0.002804 0.000176 
0.010183 -0.00276 0.000241 
0.010192 -0.002802 0.000174 
0.010161 -0.002662 0.000347 
0.01017 -0.002711 0.000312 
0.010154 -0.002657 0.000391 
0.010161 -0.002706 0.000308 
0.010178 -0.002757 0.000238 
0.010168 -0.00271 0.000269 
0.010186 -0.00276 0.000205 
0.010178 -0.002717 0.000276 
0.010045 -0.002396 0.000451 
0.010013 -0.002328 0.000444 
0.010056 -0.002414 0.000383 
0.010045 -0.002357 0.000475 
0.00998 -0.002259 0.000427 
0.009945 -0.00219 0.000401 
0.009995 -0.002286 0.000352 
0.00998 -0.002227 0.000444 
0.010068 -0.002434 0.000319 
0.010041 -0.002374 0.000304 
0.010081 -0.002455 0.000259 
0.010068 -0.002404 0.000341 
0.010027 -0.002319 0.000391 
0.010056 -0.002379 0.000406 
0.010013 -0.002292 0.000465 
0.010027 -0.00235 0.000372 
0.009909 -0.002121 0.000365 
0.009873 -0.002053 0.00032 
0.00993 -0.002156 0.000285 
0.009909 -0.002097 0.000376 
0.009836 -0.001985 0.000266 
0.009799 -0.001919 0.000204 
0.009862 -0.002029 0.000183 
0.009836 -0.00197 0.000271 
0.009951 -0.002193 0.000211 
0.00992 -0.002133 0.000163 
0.009973 -0.002231 0.000143 
0.009951 -0.002178 0.000222 
0.009896 -0.002077 0.000246 
0.00993 -0.002137 0.000296 
0.009873 -0.002033 0.000328 
0.009896 -0.002092 0.000238 
0.010095 -0.002478 0.000205 
0.010071 -0.002426 0.000185 
0.010109 -0.002503 0.000155 
0.010095 -0.002458 0.000226 
0.010046 -0.002374 0.000158 
0.010021 -0.002322 0.000123 
0.010065 -0.002406 0.000104 
0.010046 -0.00236 0.000174 
0.010124 -0.002529 0.00011 
0.010104 -0.002485 8.7e-05 
0.010139 -0.002557 7e-05 
0.010124 -0.002517 0.000131 
0.010087 -0.002441 0.000152 
0.010109 -0.002487 0.000176 
0.010071 -0.002409 0.000204 
0.010087 -0.002455 0.000133 
0.010001 -0.002272 0.000198 
0.010029 -0.002325 0.000233 
0.009982 -0.002234 0.000264 
0.010001 -0.002287 0.000184 
0.010056 -0.002377 0.000261 
0.010081 -0.00243 0.000281 
0.010041 -0.002347 0.000323 
0.010056 -0.002399 0.000242 
0.009963 -0.002197 0.000336 
0.009995 -0.002258 0.000368 
0.009945 -0.002162 0.000414 
0.009963 -0.002221 0.000323 
0.010012 -0.002313 0.000282 
0.009982 -0.002253 0.00025 
0.010029 -0.002343 0.000217 
0.010012 -0.002291 0.000298 
0.010239 -0.002866 3.9e-05 
0.010236 -0.002836 5.6e-05 
0.010248 -0.002875 2.4e-05 
0.010239 -0.002845 7e-05 
0.010229 -0.002803 6.8e-05 
0.010221 -0.00277 7.5e-05 
0.010238 -0.002816 4.7e-05 
0.010229 -0.002785 9.7e-05 
0.010257 -0.002885 1.1e-05 
0.010253 -0.002858 2.2e-05 
0.010265 -0.002896 0.0 
0.010257 -0.00287 4.1e-05 
0.010244 -0.00283 6.7e-05 
0.010248 -0.002857 5.4e-05 
0.010236 -0.002816 8.6e-05 
0.010244 -0.002846 3.8e-05 
0.01021 -0.002734 7.8e-05 
0.010198 -0.002698 7.6e-05 
0.01022 -0.002752 5.4e-05 
0.01021 -0.002719 0.000105 
0.010184 -0.002661 6.8e-05 
0.010169 -0.002623 5.4e-05 
0.010196 -0.002684 4e-05 
0.010184 -0.00265 9.2e-05 
0.01023 -0.00277 3.2e-05 
0.01022 -0.002739 2.7e-05 
0.01024 -0.00279 1.5e-05 
0.01023 -0.002761 5.9e-05 
0.010209 -0.002708 7.5e-05 
0.01022 -0.00274 8e-05 
0.010198 -0.002685 0.000101 
0.010209 -0.002718 4.9e-05 
0.010273 -0.002908 -8e-06 
0.010269 -0.002885 -1e-06 
0.01028 -0.00292 -1.5e-05 
0.010273 -0.002898 2e-05 
0.010264 -0.00286 4e-06 
0.010257 -0.002835 4e-06 
0.010271 -0.002876 -5e-06 
0.010264 -0.002853 3.1e-05 
0.010287 -0.002933 -1.9e-05 
0.010283 -0.002913 -1.3e-05 
0.010292 -0.002946 -2e-05 
0.010287 -0.002927 9e-06 
0.010276 -0.002892 2e-05 
0.01028 -0.002912 1.3e-05 
0.010269 -0.002876 2.7e-05 
0.010276 -0.002899 -8e-06 
0.010249 -0.002809 4.4e-05 
0.010256 -0.002835 4.3e-05 
0.01024 -0.00279 6.1e-05 
0.010249 -0.002818 1.7e-05 
0.010261 -0.00286 3.8e-05 
0.010265 -0.002884 2.9e-05 
0.010253 -0.002844 5.1e-05 
0.010261 -0.002871 1e-05 
0.01023 -0.002771 8e-05 
0.010238 -0.002801 7.6e-05 
0.010221 -0.002752 0.000103 
0.01023 -0.002785 5.3e-05 
0.010247 -0.00283 3e-05 
0.01024 -0.002801 3.3e-05 
0.010256 -0.002845 1.5e-05 
0.010247 -0.002818 5.8e-05 
0.010156 -0.002586 0.000111 
0.010172 -0.002624 0.000124 
0.010143 -0.002558 0.000149 
0.010156 -0.002598 8.8e-05 
0.010187 -0.002662 0.000132 
0.0102 -0.002699 0.000133 
0.010176 -0.002641 0.000166 
0.010187 -0.002679 0.000106 
0.01013 -0.002532 0.000192 
0.010149 -0.002576 0.000202 
0.010117 -0.002506 0.00024 
0.01013 -0.002551 0.000169 
0.01016 -0.002618 0.000136 
0.010143 -0.002574 0.000126 
0.010172 -0.002639 0.0001 
0.01016 -0.0026 0.000161 
0.010211 -0.002735 0.00013 
0.01022 -0.00277 0.00012 
0.010202 -0.002719 0.000159 
0.010211 -0.002756 0.000101 
0.010227 -0.002803 0.000107 
0.01023 -0.002834 8.8e-05 
0.010218 -0.002792 0.00013 
0.010227 -0.002826 7.6e-05 
0.010193 -0.002704 0.000191 
0.010203 -0.002744 0.000176 
0.010184 -0.002691 0.000227 
0.010193 -0.002732 0.000161 
0.010211 -0.002781 0.000116 
0.010202 -0.002743 0.00013 
0.01022 -0.002792 9.1e-05 
0.010211 -0.002756 0.000147 
0.010105 -0.002482 0.000293 
0.010127 -0.002534 0.000297 
0.010094 -0.00246 0.00035 
0.010105 -0.00251 0.000269 
0.010146 -0.002584 0.000293 
0.010163 -0.002633 0.000282 
0.010137 -0.002569 0.000342 
0.010146 -0.002617 0.000264 
0.010083 -0.002439 0.000411 
0.010108 -0.002498 0.000407 
0.010074 -0.00242 0.000477 
0.010083 -0.002477 0.000385 
0.010117 -0.00255 0.000322 
0.010094 -0.002492 0.000325 
0.010127 -0.002564 0.00027 
0.010117 -0.002515 0.00035 
0.010171 -0.002677 0.00021 
0.010156 -0.00263 0.000219 
0.010181 -0.002689 0.000172 
0.010171 -0.002647 0.00024 
0.010137 -0.002581 0.000222 
0.010117 -0.00253 0.000217 
0.010149 -0.002599 0.000177 
0.010137 -0.002554 0.000247 
0.01019 -0.002703 0.000138 
0.010176 -0.002661 0.00014 
0.0102 -0.002718 0.000106 
0.01019 -0.002681 0.000166 
0.010166 -0.00262 0.000205 
0.010181 -0.002663 0.000201 
0.010156 -0.002601 0.000247 
0.010166 -0.002645 0.000178 
0.010155 -0.003067 -0.000218 
0.010174 -0.003071 -0.000212 
0.010172 -0.003075 -0.00021 
0.010155 -0.003067 -0.000207 
0.010192 -0.003073 -0.000204 
0.010209 -0.003075 -0.000193 
0.010207 -0.00308 -0.000194 
0.010192 -0.003072 -0.000188 
0.010187 -0.003082 -0.000201 
0.010204 -0.003085 -0.000194 
0.010201 -0.003089 -0.000191 
0.010187 -0.003083 -0.000188 
0.01019 -0.003078 -0.000189 
0.010172 -0.003075 -0.000198 
0.010174 -0.00307 -0.000199 
0.01019 -0.003078 -0.000203 
0.010225 -0.003075 -0.000181 
0.010239 -0.003073 -0.000167 
0.010237 -0.003081 -0.000171 
0.010225 -0.003072 -0.000161 
0.010252 -0.00307 -0.000152 
0.010264 -0.003065 -0.000136 
0.010263 -0.003076 -0.000143 
0.010252 -0.003065 -0.000129 
0.010248 -0.003088 -0.000161 
0.010261 -0.003086 -0.000147 
0.010258 -0.003094 -0.000149 
0.010248 -0.003086 -0.00014 
0.010251 -0.003076 -0.000136 
0.010237 -0.003079 -0.000151 
0.010239 -0.003069 -0.000146 
0.010251 -0.00308 -0.000157 
0.010214 -0.003096 -0.000181 
0.010229 -0.003099 -0.000172 
0.010226 -0.003103 -0.000169 
0.010214 -0.003098 -0.000166 
0.010243 -0.003101 -0.000162 
0.010255 -0.003101 -0.00015 
0.010252 -0.003107 -0.000149 
0.010243 -0.003101 -0.000144 
0.010236 -0.00311 -0.000157 
0.010249 -0.003112 -0.000147 
0.010246 -0.003116 -0.000144 
0.010236 -0.003111 -0.000141 
0.010239 -0.003106 -0.000143 
0.010226 -0.003105 -0.000154 
0.010229 -0.0031 -0.000156 
0.010239 -0.003106 -0.00016 
0.010245 -0.003094 -0.000143 
0.010232 -0.003094 -0.000156 
0.010235 -0.003087 -0.000154 
0.010245 -0.003095 -0.000162 
0.010217 -0.003093 -0.000167 
0.010201 -0.00309 -0.000177 
0.010204 -0.003085 -0.000179 
0.010217 -0.003092 -0.000183 
0.010222 -0.00308 -0.000165 
0.010207 -0.003079 -0.000178 
0.010209 -0.003072 -0.000175 
0.010222 -0.003082 -0.000183 
0.01022 -0.003087 -0.000184 
0.010235 -0.003088 -0.000173 
0.010232 -0.003094 -0.000173 
0.01022 -0.003087 -0.000167 
0.010274 -0.003059 -0.00012 
0.010283 -0.003051 -0.000104 
0.010282 -0.003066 -0.000112 
0.010274 -0.003053 -9.5e-05 
0.010289 -0.003042 -8.8e-05 
0.010295 -0.003031 -7.3e-05 
0.010296 -0.003049 -8.2e-05 
0.010289 -0.003036 -6.2e-05 
0.010289 -0.003073 -0.000103 
0.010296 -0.003065 -8.8e-05 
0.010296 -0.003079 -9.3e-05 
0.010289 -0.003069 -7.8e-05 
0.01029 -0.003053 -7.1e-05 
0.010282 -0.003061 -8.7e-05 
0.010283 -0.003045 -7.8e-05 
0.01029 -0.003058 -9.7e-05 
0.010298 -0.003019 -5.9e-05 
0.0103 -0.003006 -4.7e-05 
0.010303 -0.003028 -5.4e-05 
0.010298 -0.003014 -3.2e-05 
0.010301 -0.002991 -3.6e-05 
0.0103 -0.002976 -2.7e-05 
0.010305 -0.003002 -3.2e-05 
0.010301 -0.002987 -8e-06 
0.010308 -0.003037 -4.8e-05 
0.010309 -0.003025 -3.6e-05 
0.010311 -0.003046 -4e-05 
0.010308 -0.003034 -2.1e-05 
0.010305 -0.003012 -1.5e-05 
0.010303 -0.003024 -2.7e-05 
0.0103 -0.003001 -1.9e-05 
0.010305 -0.003016 -4.2e-05 
0.010301 -0.003086 -8.3e-05 
0.010306 -0.00308 -6.9e-05 
0.010305 -0.003093 -7.1e-05 
0.010301 -0.003084 -5.8e-05 
0.01031 -0.003072 -5.5e-05 
0.010313 -0.003064 -4.2e-05 
0.010313 -0.003079 -4.4e-05 
0.01031 -0.00307 -3e-05 
0.010308 -0.003099 -5.9e-05 
0.010312 -0.003093 -4.6e-05 
0.01031 -0.003105 -4.7e-05 
0.010308 -0.003098 -3.6e-05 
0.010309 -0.003085 -3.3e-05 
0.010305 -0.003091 -4.7e-05 
0.010306 -0.003077 -4.4e-05 
0.010309 -0.003086 -5.8e-05 
0.010309 -0.003053 -2.6e-05 
0.010306 -0.003062 -3.9e-05 
0.010305 -0.003044 -3.4e-05 
0.010309 -0.003056 -5.2e-05 
0.010302 -0.00307 -5.4e-05 
0.010296 -0.003076 -6.9e-05 
0.010296 -0.003062 -6.3e-05 
0.010302 -0.003073 -7.9e-05 
0.0103 -0.003035 -4.1e-05 
0.010296 -0.003045 -5.6e-05 
0.010295 -0.003025 -4.6e-05 
0.0103 -0.003039 -6.7e-05 
0.010302 -0.003057 -7.4e-05 
0.010305 -0.003048 -6e-05 
0.010306 -0.003065 -6.5e-05 
0.010302 -0.003053 -4.8e-05 
0.010254 -0.003122 -0.000131 
0.010265 -0.003124 -0.000121 
0.010261 -0.003127 -0.000118 
0.010254 -0.003124 -0.000115 
0.010274 -0.003124 -0.00011 
0.010283 -0.003124 -9.9e-05 
0.01028 -0.00313 -9.7e-05 
0.010274 -0.003125 -9.2e-05 
0.010267 -0.003133 -0.000105 
0.010276 -0.003134 -9.4e-05 
0.010272 -0.003137 -9.1e-05 
0.010267 -0.003134 -8.8e-05 
0.010271 -0.00313 -9.1e-05 
0.010261 -0.003129 -0.000102 
0.010265 -0.003125 -0.000104 
0.010271 -0.003129 -0.000108 
0.010291 -0.003123 -8.6e-05 
0.010298 -0.003121 -7.3e-05 
0.010294 -0.003128 -7.3e-05 
0.010291 -0.003123 -6.6e-05 
0.010303 -0.003119 -6e-05 
0.010308 -0.003115 -4.7e-05 
0.010305 -0.003123 -4.7e-05 
0.010303 -0.003118 -3.9e-05 
0.010297 -0.003133 -5.9e-05 
0.010302 -0.003131 -4.6e-05 
0.010298 -0.003137 -4.5e-05 
0.010297 -0.003133 -3.9e-05 
0.0103 -0.003126 -3.9e-05 
0.010294 -0.003128 -5.3e-05 
0.010298 -0.003121 -5.3e-05 
0.0103 -0.003126 -6e-05 
0.010276 -0.003142 -7.8e-05 
0.010283 -0.003143 -6.7e-05 
0.010279 -0.003146 -6.4e-05 
0.010276 -0.003143 -6.2e-05 
0.010289 -0.003143 -5.6e-05 
0.010294 -0.003142 -4.4e-05 
0.01029 -0.003146 -4.2e-05 
0.010289 -0.003143 -3.8e-05 
0.010281 -0.003149 -5.1e-05 
0.010286 -0.003149 -4e-05 
0.010282 -0.003152 -3.8e-05 
0.010281 -0.00315 -3.6e-05 
0.010285 -0.003147 -3.7e-05 
0.010279 -0.003147 -4.9e-05 
0.010283 -0.003144 -5e-05 
0.010285 -0.003146 -5.4e-05 
0.010293 -0.003139 -3.9e-05 
0.010287 -0.003139 -5.2e-05 
0.010291 -0.003134 -5.3e-05 
0.010293 -0.003138 -5.8e-05 
0.01028 -0.00314 -6.4e-05 
0.010272 -0.003139 -7.5e-05 
0.010276 -0.003135 -7.7e-05 
0.01028 -0.003138 -8.1e-05 
0.010288 -0.00313 -6.6e-05 
0.01028 -0.00313 -7.9e-05 
0.010283 -0.003125 -8e-05 
0.010288 -0.003129 -8.5e-05 
0.010284 -0.003134 -8.3e-05 
0.010291 -0.003134 -7.1e-05 
0.010287 -0.003139 -6.9e-05 
0.010284 -0.003135 -6.5e-05 
0.010306 -0.003109 -3.7e-05 
0.010301 -0.003113 -5.2e-05 
0.010303 -0.003103 -5e-05 
0.010306 -0.003109 -6e-05 
0.010294 -0.003116 -6.6e-05 
0.010287 -0.003118 -7.9e-05 
0.01029 -0.00311 -7.8e-05 
0.010294 -0.003116 -8.7e-05 
0.010299 -0.003096 -6.2e-05 
0.010292 -0.0031 -7.6e-05 
0.010294 -0.003089 -7.3e-05 
0.010299 -0.003098 -8.5e-05 
0.010297 -0.003108 -8.6e-05 
0.010303 -0.003104 -7.3e-05 
0.010301 -0.003113 -7.4e-05 
0.010297 -0.003107 -6.4e-05 
0.010278 -0.003119 -9.3e-05 
0.010268 -0.00312 -0.000106 
0.010271 -0.003113 -0.000106 
0.010278 -0.003119 -0.000112 
0.010257 -0.003119 -0.000118 
0.010246 -0.003118 -0.000128 
0.010249 -0.003113 -0.000131 
0.010257 -0.003118 -0.000135 
0.010264 -0.003107 -0.000119 
0.010252 -0.003107 -0.000131 
0.010255 -0.003101 -0.000131 
0.010264 -0.003107 -0.000138 
0.010261 -0.003113 -0.000137 
0.010271 -0.003113 -0.000125 
0.010268 -0.003119 -0.000124 
0.010261 -0.003114 -0.000119 
0.010288 -0.003082 -8.4e-05 
0.010279 -0.003087 -9.9e-05 
0.010281 -0.003075 -9.4e-05 
0.010288 -0.003085 -0.000108 
0.010269 -0.00309 -0.000115 
0.010258 -0.003093 -0.000129 
0.010261 -0.003083 -0.000126 
0.010269 -0.003092 -0.000136 
0.010273 -0.003068 -0.000104 
0.010263 -0.003073 -0.00012 
0.010264 -0.00306 -0.000112 
0.010273 -0.003072 -0.000127 
0.010272 -0.003083 -0.000133 
0.010281 -0.003078 -0.000118 
0.010279 -0.003089 -0.000122 
0.010272 -0.00308 -0.00011 
0.010267 -0.0031 -0.000138 
0.010277 -0.003099 -0.000125 
0.010274 -0.003107 -0.000126 
0.010267 -0.003099 -0.000117 
0.010286 -0.003096 -0.000111 
0.010294 -0.003091 -9.7e-05 
0.010292 -0.003102 -9.9e-05 
0.010286 -0.003094 -8.8e-05 
0.010281 -0.003112 -0.000113 
0.01029 -0.003111 -0.0001 
0.010287 -0.003118 -0.0001 
0.010281 -0.003112 -9.2e-05 
0.010284 -0.003104 -9.1e-05 
0.010274 -0.003106 -0.000105 
0.010277 -0.003097 -0.000103 
0.010284 -0.003105 -0.000112 
0.010295 -0.002959 -0.0 
0.010295 -0.002975 -1e-05 
0.010289 -0.002945 1e-06 
0.010295 -0.002964 -2.8e-05 
0.010294 -0.00299 -2.2e-05 
0.010292 -0.003003 -3.6e-05 
0.010288 -0.002978 -2.3e-05 
0.010294 -0.002996 -5e-05 
0.010282 -0.002932 4e-06 
0.010282 -0.00295 -8e-06 
0.010275 -0.002919 9e-06 
0.010282 -0.002941 -2.4e-05 
0.010289 -0.00297 -3.8e-05 
0.010289 -0.002952 -2.7e-05 
0.010295 -0.002981 -3.8e-05 
0.010289 -0.002962 -1e-05 
0.010288 -0.003016 -5.1e-05 
0.010282 -0.003027 -6.7e-05 
0.01028 -0.003007 -5.4e-05 
0.010288 -0.003023 -7.8e-05 
0.010274 -0.003037 -8.5e-05 
0.010265 -0.003046 -0.000103 
0.010265 -0.003029 -9e-05 
0.010274 -0.003044 -0.000111 
0.010272 -0.002998 -5.6e-05 
0.010264 -0.003011 -7.5e-05 
0.010262 -0.002989 -5.7e-05 
0.010272 -0.003008 -8.4e-05 
0.010274 -0.003027 -9.9e-05 
0.01028 -0.003015 -8.2e-05 
0.010282 -0.003034 -9.4e-05 
0.010274 -0.003019 -7.2e-05 
0.010267 -0.002906 1.7e-05 
0.010266 -0.002928 2e-06 
0.010258 -0.002894 2.6e-05 
0.010267 -0.002919 -1.2e-05 
0.010264 -0.002947 -1.6e-05 
0.010259 -0.002965 -3.5e-05 
0.010255 -0.002938 -1e-05 
0.010264 -0.002961 -4.5e-05 
0.01025 -0.002883 3.8e-05 
0.010249 -0.002907 1.8e-05 
0.010241 -0.002873 5.1e-05 
0.01025 -0.002901 7e-06 
0.010258 -0.002933 -2.1e-05 
0.010258 -0.00291 -3e-06 
0.010266 -0.002941 -2.8e-05 
0.010258 -0.002917 9e-06 
0.010269 -0.002986 -6.6e-05 
0.010273 -0.002969 -4.8e-05 
0.010277 -0.002994 -6.6e-05 
0.010269 -0.002974 -3.7e-05 
0.010275 -0.00295 -3.3e-05 
0.010275 -0.00293 -1.9e-05 
0.010282 -0.00296 -3.6e-05 
0.010275 -0.002939 -4e-06 
0.010285 -0.003002 -6.5e-05 
0.010288 -0.002987 -5.1e-05 
0.010292 -0.00301 -6.3e-05 
0.010285 -0.002993 -3.8e-05 
0.010281 -0.002968 -2.2e-05 
0.010277 -0.002983 -3.8e-05 
0.010273 -0.002957 -2e-05 
0.010281 -0.002978 -5e-05 
0.010254 -0.003053 -0.00012 
0.010241 -0.003058 -0.000138 
0.010243 -0.003045 -0.000128 
0.010254 -0.003059 -0.000144 
0.010227 -0.003062 -0.000155 
0.010211 -0.003064 -0.00017 
0.010213 -0.003055 -0.000163 
0.010227 -0.003067 -0.000176 
0.01023 -0.003038 -0.000134 
0.010215 -0.003044 -0.000153 
0.010217 -0.003031 -0.00014 
0.01023 -0.003046 -0.000158 
0.010229 -0.003057 -0.000168 
0.010243 -0.003052 -0.000151 
0.010241 -0.003063 -0.00016 
0.010229 -0.003051 -0.000146 
0.010194 -0.003065 -0.000185 
0.010176 -0.003064 -0.000197 
0.010178 -0.003057 -0.000193 
0.010194 -0.003068 -0.000202 
0.010157 -0.003062 -0.000207 
0.010137 -0.003059 -0.000215 
0.010139 -0.003054 -0.000215 
0.010157 -0.003063 -0.00022 
0.010161 -0.00305 -0.000201 
0.01014 -0.003049 -0.000213 
0.010141 -0.003042 -0.000208 
0.010161 -0.003053 -0.000216 
0.010159 -0.003059 -0.000219 
0.010178 -0.003061 -0.000209 
0.010176 -0.003066 -0.000212 
0.010159 -0.003057 -0.000205 
0.010202 -0.003024 -0.000145 
0.010184 -0.00303 -0.000165 
0.010185 -0.003018 -0.000149 
0.010202 -0.003034 -0.000168 
0.010164 -0.003033 -0.000184 
0.010143 -0.003035 -0.0002 
0.010145 -0.003026 -0.000189 
0.010164 -0.00304 -0.000202 
0.010168 -0.003011 -0.000153 
0.010146 -0.003016 -0.000175 
0.010148 -0.003005 -0.000156 
0.010168 -0.003023 -0.000176 
0.010166 -0.003032 -0.000191 
0.010185 -0.003028 -0.000172 
0.010184 -0.003038 -0.000186 
0.010166 -0.003023 -0.00017 
0.010162 -0.003047 -0.000211 
0.010182 -0.003047 -0.000197 
0.01018 -0.003054 -0.000205 
0.010162 -0.003042 -0.000194 
0.0102 -0.003044 -0.000181 
0.010217 -0.00304 -0.000163 
0.010215 -0.003051 -0.000175 
0.0102 -0.003037 -0.000159 
0.010196 -0.003061 -0.000198 
0.010213 -0.00306 -0.000184 
0.010211 -0.003068 -0.000189 
0.010196 -0.003057 -0.000179 
0.010198 -0.003048 -0.000171 
0.01018 -0.00305 -0.000187 
0.010182 -0.00304 -0.000178 
0.010198 -0.003053 -0.000191 
0.010231 -0.002864 6.6e-05 
0.010229 -0.00289 4.1e-05 
0.010221 -0.002855 8.3e-05 
0.010231 -0.002887 3.4e-05 
0.010223 -0.002914 1.3e-05 
0.010215 -0.002936 -1.6e-05 
0.010212 -0.002908 2.3e-05 
0.010223 -0.002937 -1.9e-05 
0.010211 -0.002848 0.0001 
0.010207 -0.002878 6.8e-05 
0.010201 -0.002843 0.000119 
0.010211 -0.002877 6.5e-05 
0.010218 -0.002909 2e-05 
0.010221 -0.002881 4.9e-05 
0.010229 -0.002913 8e-06 
0.010218 -0.002883 5.4e-05 
0.010203 -0.002954 -4.6e-05 
0.010188 -0.00297 -7.6e-05 
0.010188 -0.002949 -4.2e-05 
0.010203 -0.002974 -7.7e-05 
0.01017 -0.002982 -0.000106 
0.01015 -0.002992 -0.000133 
0.010151 -0.002977 -0.000106 
0.01017 -0.002999 -0.000133 
0.010172 -0.002945 -3.8e-05 
0.010153 -0.00296 -7.2e-05 
0.010154 -0.002941 -3.3e-05 
0.010172 -0.002968 -7e-05 
0.010171 -0.002985 -0.000104 
0.010188 -0.002971 -7.3e-05 
0.010188 -0.002988 -0.000105 
0.010171 -0.002965 -7.4e-05 
0.01019 -0.002839 0.000138 
0.010183 -0.00287 9.8e-05 
0.010179 -0.002836 0.000158 
0.01019 -0.002873 0.0001 
0.010171 -0.002897 5.5e-05 
0.010155 -0.00292 1.3e-05 
0.010156 -0.002895 6.6e-05 
0.010171 -0.002928 1.8e-05 
0.010167 -0.002835 0.000177 
0.010156 -0.002867 0.000126 
0.010155 -0.002835 0.000196 
0.010167 -0.002875 0.000134 
0.01017 -0.002903 7.2e-05 
0.010179 -0.002874 0.000117 
0.010183 -0.002903 5.9e-05 
0.01017 -0.002868 0.000112 
0.010172 -0.002949 -2.9e-05 
0.010186 -0.002929 8e-06 
0.010187 -0.002951 -3.6e-05 
0.010172 -0.002922 5e-06 
0.010196 -0.002904 4.6e-05 
0.010201 -0.002875 8.2e-05 
0.010207 -0.002906 3.3e-05 
0.010196 -0.002873 8.3e-05 
0.010202 -0.002954 -4.2e-05 
0.010212 -0.002933 -1e-05 
0.010215 -0.002957 -4.8e-05 
0.010202 -0.00293 -9e-06 
0.010199 -0.002904 3.4e-05 
0.010187 -0.002926 -2e-06 
0.010186 -0.0029 4.4e-05 
0.010199 -0.00293 -1e-06 
0.010169 -0.003012 -0.000156 
0.010188 -0.003004 -0.000132 
0.010187 -0.003017 -0.000154 
0.010169 -0.002998 -0.000132 
0.010204 -0.002992 -0.000106 
0.010217 -0.002978 -8e-05 
0.010218 -0.002997 -0.000107 
0.010204 -0.002975 -7.8e-05 
0.010203 -0.003022 -0.000152 
0.010218 -0.003013 -0.00013 
0.010218 -0.003028 -0.000148 
0.010203 -0.00301 -0.000127 
0.010204 -0.002994 -0.000104 
0.010187 -0.003004 -0.000129 
0.010188 -0.002988 -0.000105 
0.010204 -0.003008 -0.000131 
0.010227 -0.002961 -5.3e-05 
0.010235 -0.002942 -2.7e-05 
0.010239 -0.002967 -5.8e-05 
0.010227 -0.002942 -2.2e-05 
0.010239 -0.002919 -3e-06 
0.010241 -0.002893 2e-05 
0.010249 -0.002925 -1.2e-05 
0.010239 -0.002898 2.9e-05 
0.010249 -0.002972 -6.2e-05 
0.010255 -0.002954 -4e-05 
0.010259 -0.002979 -6.4e-05 
0.010249 -0.002957 -3.2e-05 
0.010245 -0.002929 -4e-06 
0.010239 -0.002949 -2.7e-05 
0.010235 -0.002921 4e-06 
0.010245 -0.002947 -3.4e-05 
0.010231 -0.003033 -0.000144 
0.010244 -0.003025 -0.000125 
0.010244 -0.00304 -0.00014 
0.010231 -0.003024 -0.000119 
0.010254 -0.003014 -0.000105 
0.010262 -0.003001 -8.5e-05 
0.010264 -0.00302 -0.000102 
0.010254 -0.003003 -7.7e-05 
0.010255 -0.003046 -0.000134 
0.010265 -0.003037 -0.000116 
0.010265 -0.003052 -0.000127 
0.010255 -0.003038 -0.000109 
0.010255 -0.003022 -9.5e-05 
0.010244 -0.003031 -0.000114 
0.010244 -0.003014 -9.8e-05 
0.010255 -0.003031 -0.000121 
0.010252 -0.002981 -5.6e-05 
0.010243 -0.002995 -7.8e-05 
0.010241 -0.002973 -5.5e-05 
0.010252 -0.002994 -8.5e-05 
0.010231 -0.003007 -0.000101 
0.010218 -0.003017 -0.000123 
0.010218 -0.003 -0.000103 
0.010231 -0.003019 -0.000128 
0.01023 -0.002966 -5.3e-05 
0.010218 -0.002981 -7.9e-05 
0.010217 -0.00296 -5e-05 
0.01023 -0.002983 -8.2e-05 
0.010231 -0.003002 -0.000107 
0.010241 -0.002988 -8.4e-05 
0.010243 -0.003008 -0.000106 
0.010231 -0.002988 -7.9e-05 
0.009762 -0.001853 0.000134 
0.009726 -0.001789 5.6e-05 
0.009793 -0.001906 5e-05 
0.009762 -0.001846 0.000135 
0.00969 -0.001726 -2.9e-05 
0.009654 -0.001664 -0.000121 
0.009727 -0.001786 -0.000113 
0.00969 -0.001727 -3.2e-05 
0.009825 -0.001959 -2.7e-05 
0.009795 -0.001903 -0.000105 
0.009858 -0.002014 -9.7e-05 
0.009825 -0.001961 -2.4e-05 
0.00976 -0.001847 -2.8e-05 
0.009793 -0.001903 5.2e-05 
0.009726 -0.001786 5.5e-05 
0.00976 -0.001845 -2.8e-05 
0.00962 -0.001603 -0.00022 
0.009586 -0.001543 -0.000326 
0.009662 -0.001672 -0.000305 
0.00962 -0.001612 -0.000226 
0.009552 -0.001485 -0.000438 
0.00952 -0.001427 -0.000556 
0.009601 -0.001562 -0.000522 
0.009552 -0.001501 -0.000446 
0.009706 -0.001742 -0.000381 
0.009678 -0.001691 -0.000486 
0.00975 -0.001814 -0.00045 
0.009706 -0.00176 -0.000382 
0.009631 -0.001634 -0.000415 
0.009662 -0.001686 -0.000308 
0.009586 -0.001556 -0.000333 
0.009631 -0.001616 -0.00041 
0.00989 -0.002069 -0.00016 
0.009865 -0.002022 -0.000237 
0.009922 -0.002126 -0.000215 
0.00989 -0.002079 -0.000153 
0.00984 -0.001976 -0.000322 
0.009816 -0.001931 -0.000412 
0.009878 -0.002041 -0.000375 
0.00984 -0.001994 -0.000316 
0.009954 -0.002183 -0.000262 
0.009934 -0.002144 -0.000337 
0.009986 -0.002241 -0.000301 
0.009954 -0.002201 -0.00025 
0.0099 -0.002101 -0.000283 
0.009922 -0.00214 -0.000205 
0.009865 -0.002036 -0.000231 
0.0099 -0.002083 -0.000291 
0.009775 -0.001881 -0.000349 
0.009802 -0.001926 -0.000257 
0.009735 -0.001809 -0.000283 
0.009775 -0.001862 -0.000352 
0.00983 -0.001972 -0.000171 
0.009858 -0.002019 -9.2e-05 
0.009795 -0.001909 -0.000103 
0.00983 -0.001962 -0.000175 
0.009694 -0.001738 -0.000208 
0.009727 -0.001792 -0.000115 
0.009654 -0.001669 -0.000126 
0.009694 -0.001729 -0.000206 
0.009764 -0.001848 -0.000191 
0.009735 -0.001795 -0.000283 
0.009802 -0.001911 -0.00026 
0.009764 -0.001858 -0.00019 
0.009488 -0.00137 -0.00068 
0.009457 -0.001313 -0.00081 
0.009543 -0.001455 -0.000765 
0.009488 -0.001393 -0.000689 
0.009426 -0.001256 -0.000946 
0.009396 -0.0012 -0.001088 
0.009488 -0.00135 -0.001033 
0.009426 -0.001285 -0.000957 
0.009599 -0.001542 -0.000841 
0.009575 -0.001494 -0.000973 
0.009656 -0.001632 -0.000908 
0.009599 -0.001576 -0.000844 
0.009515 -0.001434 -0.000903 
0.009543 -0.001483 -0.000772 
0.009457 -0.001339 -0.00082 
0.009515 -0.001402 -0.000896 
0.009366 -0.001143 -0.001237 
0.009337 -0.001085 -0.001391 
0.009436 -0.001245 -0.001328 
0.009366 -0.001177 -0.001249 
0.009309 -0.001026 -0.001553 
0.00928 -0.000965 -0.00172 
0.009387 -0.001137 -0.00165 
0.009309 -0.001063 -0.001566 
0.009508 -0.001351 -0.001408 
0.009488 -0.001304 -0.001568 
0.009582 -0.001462 -0.001476 
0.009508 -0.001401 -0.001411 
0.009411 -0.001235 -0.001494 
0.009436 -0.001286 -0.001336 
0.009337 -0.001121 -0.001405 
0.009411 -0.001192 -0.001485 
0.009713 -0.001724 -0.000964 
0.009697 -0.001686 -0.001094 
0.00977 -0.001818 -0.001007 
0.009713 -0.00177 -0.000958 
0.009682 -0.001649 -0.001231 
0.009668 -0.001613 -0.001376 
0.009747 -0.001755 -0.001271 
0.009682 -0.001706 -0.001223 
0.009827 -0.001913 -0.001038 
0.009818 -0.001887 -0.001163 
0.009882 -0.00201 -0.001054 
0.009827 -0.001972 -0.00102 
0.009758 -0.001844 -0.001123 
0.00977 -0.001871 -0.000996 
0.009697 -0.001737 -0.001087 
0.009758 -0.001786 -0.001135 
0.009598 -0.001558 -0.00132 
0.009616 -0.001595 -0.001175 
0.009529 -0.001445 -0.001259 
0.009598 -0.001504 -0.001323 
0.009635 -0.001633 -0.001038 
0.009656 -0.001672 -0.000907 
0.009575 -0.001532 -0.000976 
0.009635 -0.001589 -0.001039 
0.009461 -0.001336 -0.001185 
0.009488 -0.001385 -0.001041 
0.009396 -0.001231 -0.0011 
0.009461 -0.001298 -0.001177 
0.009551 -0.001447 -0.001111 
0.009529 -0.001399 -0.001256 
0.009616 -0.001546 -0.001177 
0.009551 -0.001488 -0.001114 
0.010016 -0.002299 -0.000331 
0.010001 -0.002269 -0.000402 
0.010046 -0.002357 -0.000353 
0.010016 -0.002325 -0.000314 
0.009987 -0.00224 -0.000479 
0.009974 -0.002212 -0.000562 
0.010021 -0.002306 -0.000495 
0.009987 -0.002275 -0.000461 
0.010073 -0.002415 -0.000366 
0.010062 -0.002393 -0.000432 
0.010098 -0.002472 -0.000371 
0.010073 -0.002447 -0.000343 
0.010032 -0.002365 -0.000401 
0.010046 -0.002387 -0.000333 
0.010001 -0.002299 -0.000385 
0.010032 -0.002331 -0.000422 
0.009962 -0.002187 -0.00065 
0.009952 -0.002164 -0.000743 
0.010001 -0.002262 -0.000658 
0.009962 -0.002233 -0.000629 
0.009944 -0.002142 -0.000841 
0.009938 -0.002124 -0.000945 
0.009988 -0.002228 -0.000839 
0.009944 -0.0022 -0.000816 
0.010036 -0.002337 -0.000655 
0.010031 -0.002323 -0.000737 
0.010068 -0.00241 -0.00064 
0.010036 -0.00239 -0.000624 
0.009993 -0.0023 -0.000718 
0.010001 -0.002312 -0.000632 
0.009952 -0.002215 -0.00072 
0.009993 -0.002244 -0.000746 
0.010121 -0.002528 -0.000367 
0.010113 -0.002513 -0.000424 
0.010141 -0.002582 -0.000355 
0.010121 -0.002565 -0.000338 
0.010106 -0.0025 -0.000484 
0.0101 -0.002489 -0.000548 
0.010127 -0.002561 -0.000462 
0.010106 -0.002547 -0.000451 
0.010157 -0.002634 -0.000336 
0.01015 -0.002625 -0.000382 
0.010169 -0.002684 -0.000309 
0.010157 -0.002675 -0.000301 
0.010133 -0.002614 -0.000373 
0.010141 -0.002621 -0.000323 
0.010113 -0.002555 -0.000393 
0.010133 -0.00257 -0.000407 
0.010073 -0.002473 -0.000535 
0.01008 -0.002482 -0.000468 
0.010043 -0.002401 -0.000548 
0.010073 -0.002422 -0.000567 
0.010089 -0.002493 -0.000404 
0.010098 -0.002507 -0.000345 
0.010062 -0.00243 -0.000407 
0.010089 -0.002453 -0.000432 
0.01001 -0.002328 -0.00055 
0.010021 -0.002345 -0.000473 
0.009974 -0.002253 -0.000542 
0.01001 -0.002283 -0.000574 
0.010052 -0.002372 -0.000501 
0.010043 -0.002353 -0.000576 
0.01008 -0.002437 -0.000498 
0.010052 -0.002414 -0.000475 
0.009889 -0.002091 -0.000917 
0.009898 -0.002109 -0.000811 
0.009838 -0.001995 -0.000903 
0.009889 -0.002032 -0.000939 
0.009909 -0.00213 -0.00071 
0.009922 -0.002153 -0.000614 
0.009864 -0.002045 -0.000687 
0.009909 -0.002083 -0.000728 
0.009785 -0.001899 -0.000875 
0.009801 -0.001929 -0.000761 
0.009731 -0.001804 -0.000835 
0.009785 -0.001852 -0.000886 
0.00985 -0.001971 -0.000807 
0.009838 -0.001942 -0.000919 
0.009898 -0.002057 -0.00083 
0.00985 -0.002019 -0.000792 
0.009936 -0.002178 -0.000524 
0.009952 -0.002204 -0.000439 
0.009897 -0.002103 -0.000495 
0.009936 -0.002141 -0.000539 
0.009968 -0.002233 -0.00036 
0.009986 -0.002263 -0.000286 
0.009934 -0.002167 -0.000326 
0.009968 -0.002206 -0.000374 
0.009857 -0.002028 -0.000456 
0.009878 -0.002064 -0.000366 
0.009816 -0.001954 -0.000407 
0.009857 -0.002 -0.000464 
0.009915 -0.002107 -0.000419 
0.009897 -0.00207 -0.000507 
0.009952 -0.002173 -0.000454 
0.009915 -0.002134 -0.000407 
0.009678 -0.001712 -0.000782 
0.009701 -0.001752 -0.000665 
0.009624 -0.001621 -0.000719 
0.009678 -0.001676 -0.000783 
0.009725 -0.001794 -0.000553 
0.00975 -0.001837 -0.000448 
0.009678 -0.001713 -0.000488 
0.009725 -0.001767 -0.000554 
0.009572 -0.001533 -0.000646 
0.009601 -0.001583 -0.000527 
0.00952 -0.001447 -0.000564 
0.009572 -0.001508 -0.00064 
0.009651 -0.001641 -0.000598 
0.009624 -0.001591 -0.000717 
0.009701 -0.001721 -0.000666 
0.009651 -0.001667 -0.000601 
0.009793 -0.001887 -0.000509 
0.009772 -0.001844 -0.000613 
0.009837 -0.001961 -0.00056 
0.009793 -0.001914 -0.000505 
0.009751 -0.001803 -0.000723 
0.009731 -0.001763 -0.00084 
0.009801 -0.001887 -0.000771 
0.009751 -0.00184 -0.000718 
0.00988 -0.002036 -0.0006 
0.009864 -0.002003 -0.0007 
0.009922 -0.002111 -0.000631 
0.00988 -0.002073 -0.000588 
0.009818 -0.00196 -0.000653 
0.009837 -0.001993 -0.000551 
0.009772 -0.001876 -0.000608 
0.009818 -0.001923 -0.000662 
0.009252 -0.000902 -0.001894 
0.009224 -0.000837 -0.002075 
0.009341 -0.001024 -0.002002 
0.009252 -0.000941 -0.00191 
0.009196 -0.000768 -0.002263 
0.009167 -0.000695 -0.002457 
0.009297 -0.0009 -0.002386 
0.009196 -0.000806 -0.002281 
0.009435 -0.001154 -0.002096 
0.00942 -0.0011 -0.00229 
0.009534 -0.001293 -0.002173 
0.009435 -0.001216 -0.002098 
0.009319 -0.001015 -0.0022 
0.009341 -0.001074 -0.002012 
0.009224 -0.000876 -0.002092 
0.009319 -0.000964 -0.00219 
0.009139 -0.000617 -0.002661 
0.00911 -0.000533 -0.002866 
0.009256 -0.00076 -0.002807 
0.00914 -0.000649 -0.002681 
0.009086 -0.000439 -0.003086 
0.009052 -0.00035 -0.003288 
0.009218 -0.000595 -0.003261 
0.009086 -0.000465 -0.003104 
0.009387 -0.000919 -0.002939 
0.00938 -0.000849 -0.003179 
0.009531 -0.001098 -0.003047 
0.009387 -0.000989 -0.002941 
0.009238 -0.000725 -0.003046 
0.009256 -0.000808 -0.002822 
0.00911 -0.00056 -0.002893 
0.009238 -0.000681 -0.003032 
0.009638 -0.00144 -0.002228 
0.009642 -0.001406 -0.002429 
0.009744 -0.001596 -0.002254 
0.009638 -0.001533 -0.002206 
0.009651 -0.001371 -0.002643 
0.009665 -0.001334 -0.002872 
0.009781 -0.001553 -0.002665 
0.009651 -0.001479 -0.002613 
0.00985 -0.001759 -0.002247 
0.009875 -0.001751 -0.002438 
0.009951 -0.001926 -0.0022 
0.00985 -0.001886 -0.002189 
0.009759 -0.001694 -0.002408 
0.009744 -0.001706 -0.002216 
0.009642 -0.001506 -0.002403 
0.009759 -0.001574 -0.002453 
0.009526 -0.001242 -0.002794 
0.009525 -0.001287 -0.002572 
0.009396 -0.001053 -0.002713 
0.009526 -0.001151 -0.002808 
0.009528 -0.001329 -0.002362 
0.009534 -0.001369 -0.002165 
0.00942 -0.001166 -0.002293 
0.009528 -0.001248 -0.002372 
0.009276 -0.000883 -0.002605 
0.009297 -0.000951 -0.002398 
0.009167 -0.00073 -0.002479 
0.009276 -0.000832 -0.002592 
0.009407 -0.001044 -0.002495 
0.009396 -0.000984 -0.002711 
0.009525 -0.001201 -0.002583 
0.009407 -0.001112 -0.002497 
0.009034 -0.000259 -0.003518 
0.009191 -0.000402 -0.003749 
0.009038 -0.000208 -0.003554 
0.008989 0.0 -0.003785 
0.009077 0.0 -0.00407 
0.009201 -0.000197 -0.004291 
0.0092 -0.000216 -0.004236 
0.009388 -0.00058 -0.003992 
0.009393 -0.000481 -0.004259 
0.009618 -0.000818 -0.004187 
0.009389 -0.000633 -0.003987 
0.009194 -0.000306 -0.004033 
0.009191 -0.000415 -0.003779 
0.009034 -0.000209 -0.003865 
0.009194 -0.000254 -0.00403 
0.009436 0.0 -0.004969 
0.009694 0.0 -0.005413 
0.010033 -0.000353 -0.005663 
0.010032 -0.000399 -0.005631 
0.009906 -0.001108 -0.004343 
0.010016 -0.001045 -0.004732 
0.010232 -0.001463 -0.004366 
0.009906 -0.001285 -0.004248 
0.010181 -0.000954 -0.005201 
0.010385 -0.000879 -0.005661 
0.010731 -0.001469 -0.005258 
0.010183 -0.001168 -0.005035 
0.010561 -0.001872 -0.004169 
0.010841 -0.001957 -0.004475 
0.010818 -0.002296 -0.003679 
0.010561 -0.002266 -0.003776 
0.010438 -0.001822 -0.004474 
0.010232 -0.001753 -0.004153 
0.010016 -0.001233 -0.004626 
0.010438 -0.001459 -0.004782 
0.009874 -0.000529 -0.00527 
0.009745 -0.000669 -0.004884 
0.009567 -0.000327 -0.005004 
0.009864 -0.000419 -0.005347 
0.009676 -0.000798 -0.004507 
0.009618 -0.000914 -0.004171 
0.009393 -0.000501 -0.004304 
0.009676 -0.000725 -0.00454 
0.009342 -0.000284 -0.004634 
0.009258 0.0 -0.004584 
0.009425 -0.000369 -0.004572 
0.009745 -0.000612 -0.004899 
0.009429 -0.000292 -0.004616 
0.010043 -0.002095 -0.00211 
0.010086 -0.002116 -0.00226 
0.010119 -0.002259 -0.001974 
0.010043 -0.00225 -0.002002 
0.010141 -0.002145 -0.002411 
0.010211 -0.002185 -0.00256 
0.010222 -0.002337 -0.002199 
0.010141 -0.00234 -0.002251 
0.010173 -0.002414 -0.001793 
0.010216 -0.002458 -0.00187 
0.010199 -0.002553 -0.001575 
0.010173 -0.002579 -0.001635 
0.010165 -0.002474 -0.001929 
0.010119 -0.002422 -0.00184 
0.010086 -0.002289 -0.00213 
0.010165 -0.002293 -0.002091 
0.010299 -0.002238 -0.002701 
0.010409 -0.002308 -0.002826 
0.010375 -0.002463 -0.002364 
0.010299 -0.002488 -0.002451 
0.010547 -0.002399 -0.002921 
0.010715 -0.002517 -0.002959 
0.010584 -0.002655 -0.002361 
0.010547 -0.002724 -0.002502 
0.010387 -0.002653 -0.001949 
0.010448 -0.002741 -0.001878 
0.010323 -0.002793 -0.001492 
0.010387 -0.002879 -0.001604 
0.010473 -0.002823 -0.002007 
0.010375 -0.002711 -0.002058 
0.010409 -0.002593 -0.002506 
0.010473 -0.00255 -0.002394 
0.010192 -0.002671 -0.001328 
0.010207 -0.002719 -0.001317 
0.010151 -0.002764 -0.001068 
0.010192 -0.002818 -0.001137 
0.010216 -0.002771 -0.001272 
0.010212 -0.002826 -0.001181 
0.010116 -0.002845 -0.000933 
0.010216 -0.002925 -0.001012 
0.010075 -0.002829 -0.000809 
0.010035 -0.002858 -0.000732 
0.009968 -0.002867 -0.000568 
0.010075 -0.002934 -0.000623 
0.010141 -0.002931 -0.000798 
0.010151 -0.002892 -0.000874 
0.010207 -0.002871 -0.001094 
0.010141 -0.002805 -0.001019 
0.010299 -0.00291 -0.001277 
0.010266 -0.002839 -0.001359 
0.010325 -0.002789 -0.001678 
0.010299 -0.002723 -0.001579 
0.010232 -0.002772 -0.001395 
0.010199 -0.002713 -0.001396 
0.010216 -0.002638 -0.00168 
0.010232 -0.002602 -0.001607 
0.010292 -0.002617 -0.002049 
0.010222 -0.002539 -0.002001 
0.010211 -0.002405 -0.002361 
0.010292 -0.002393 -0.002294 
0.010267 -0.002511 -0.001929 
0.010324 -0.002576 -0.001959 
0.010266 -0.002659 -0.001612 
0.010267 -0.002708 -0.001698 
0.010586 -0.002554 -0.003098 
0.01041 -0.002412 -0.003022 
0.010358 -0.00214 -0.003587 
0.010586 -0.00218 -0.003524 
0.010277 -0.002306 -0.002899 
0.010174 -0.002227 -0.002754 
0.010102 -0.001993 -0.003163 
0.010277 -0.002038 -0.00314 
0.01009 -0.001715 -0.003846 
0.009986 -0.001694 -0.003564 
0.009822 -0.001327 -0.003915 
0.01009 -0.001471 -0.00401 
0.010211 -0.001783 -0.00359 
0.010358 -0.001818 -0.00387 
0.01041 -0.002097 -0.003338 
0.010211 -0.002054 -0.003376 
0.010095 -0.002168 -0.002597 
0.010034 -0.002124 -0.002437 
0.009958 -0.001922 -0.00275 
0.010095 -0.001966 -0.002747 
0.009987 -0.002092 -0.002276 
0.009951 -0.002069 -0.002119 
0.009875 -0.001891 -0.002368 
0.009987 -0.001933 -0.002375 
0.009811 -0.00168 -0.002826 
0.009781 -0.001686 -0.002611 
0.009665 -0.001452 -0.002836 
0.009811 -0.001533 -0.002893 
0.009911 -0.001746 -0.00264 
0.009958 -0.001745 -0.002855 
0.010034 -0.001945 -0.002558 
0.009911 -0.001903 -0.002555 
0.009585 -0.001003 -0.003847 
0.009558 -0.001076 -0.003557 
0.009377 -0.00074 -0.00371 
0.009585 -0.000902 -0.003875 
0.009541 -0.001139 -0.003284 
0.009531 -0.001193 -0.003031 
0.00938 -0.000916 -0.003183 
0.009541 -0.00104 -0.003303 
0.009207 -0.000524 -0.003523 
0.009218 -0.000632 -0.003286 
0.009053 -0.000359 -0.003338 
0.009207 -0.000503 -0.003508 
0.009378 -0.000771 -0.003435 
0.009377 -0.000685 -0.003699 
0.009558 -0.000975 -0.003577 
0.009378 -0.000834 -0.003437 
0.009688 -0.001296 -0.003119 
0.009719 -0.001256 -0.003384 
0.009853 -0.001515 -0.003137 
0.009688 -0.001424 -0.003075 
0.009764 -0.001212 -0.003674 
0.009822 -0.001163 -0.003989 
0.009986 -0.001483 -0.00369 
0.009764 -0.001363 -0.003609 
0.01002 -0.00175 -0.003084 
0.010102 -0.001762 -0.003328 
0.010174 -0.001996 -0.002942 
0.01002 -0.001951 -0.002954 
0.00991 -0.001683 -0.003301 
0.009853 -0.001679 -0.003056 
0.009719 -0.001394 -0.003332 
0.00991 -0.001498 -0.003401 
0.010177 -0.00273 -0.000276 
0.01017 -0.002726 -0.000311 
0.010181 -0.002773 -0.000237 
0.010177 -0.002772 -0.000237 
0.010162 -0.002724 -0.000346 
0.010155 -0.002724 -0.000382 
0.010163 -0.00277 -0.000295 
0.010162 -0.002774 -0.000301 
0.010179 -0.002812 -0.000195 
0.010168 -0.002811 -0.000217 
0.010172 -0.002847 -0.000148 
0.010179 -0.002852 -0.000153 
0.010172 -0.002815 -0.000223 
0.010181 -0.002814 -0.000197 
0.01017 -0.002772 -0.000269 
0.010172 -0.002771 -0.000266 
0.010148 -0.002727 -0.000416 
0.01014 -0.002732 -0.00045 
0.010143 -0.002776 -0.00035 
0.010148 -0.002785 -0.000363 
0.010133 -0.002739 -0.000481 
0.010124 -0.002749 -0.000509 
0.010121 -0.002789 -0.000397 
0.010133 -0.002805 -0.000417 
0.010132 -0.002818 -0.00028 
0.010117 -0.002824 -0.000297 
0.010112 -0.002854 -0.00021 
0.010132 -0.00287 -0.000226 
0.010133 -0.00284 -0.000316 
0.010143 -0.002831 -0.000295 
0.01014 -0.002794 -0.000392 
0.010133 -0.002781 -0.000375 
0.01016 -0.002877 -0.000101 
0.010145 -0.002877 -0.000113 
0.010144 -0.002903 -5.2e-05 
0.01016 -0.002913 -6e-05 
0.010127 -0.002878 -0.000124 
0.010108 -0.00288 -0.000133 
0.010103 -0.002903 -6.7e-05 
0.010127 -0.002918 -7.9e-05 
0.010122 -0.002924 -5e-06 
0.010099 -0.002923 -1e-05 
0.010095 -0.00294 3.9e-05 
0.010122 -0.002954 3.1e-05 
0.010125 -0.002937 -2e-05 
0.010144 -0.002936 -1.3e-05 
0.010145 -0.002915 -7e-05 
0.010125 -0.002902 -6e-05 
0.01013 -0.002895 -0.000147 
0.010145 -0.002891 -0.000136 
0.010145 -0.002863 -0.00021 
0.01013 -0.00285 -0.000197 
0.010159 -0.002887 -0.000122 
0.010172 -0.002885 -0.000107 
0.010168 -0.002854 -0.000173 
0.010159 -0.002847 -0.000166 
0.010153 -0.002824 -0.000273 
0.010163 -0.002818 -0.000248 
0.010155 -0.002778 -0.000332 
0.010153 -0.002772 -0.000323 
0.010157 -0.002812 -0.00024 
0.010145 -0.002814 -0.000261 
0.010145 -0.002848 -0.000182 
0.010157 -0.002858 -0.000192 
0.010115 -0.002761 -0.000533 
0.010103 -0.002775 -0.000551 
0.010091 -0.00281 -0.000427 
0.010115 -0.002834 -0.000456 
0.010089 -0.002791 -0.000561 
0.010071 -0.002809 -0.000562 
0.010048 -0.002835 -0.000432 
0.010089 -0.002869 -0.000467 
0.010057 -0.002848 -0.000323 
0.010028 -0.002857 -0.00032 
0.010011 -0.002876 -0.000225 
0.010057 -0.002907 -0.000251 
0.010072 -0.00289 -0.000351 
0.010091 -0.002876 -0.000351 
0.010103 -0.002851 -0.000466 
0.010072 -0.002822 -0.000434 
0.010046 -0.002827 -0.000551 
0.010014 -0.002845 -0.000527 
0.00998 -0.002861 -0.0004 
0.010046 -0.002906 -0.00044 
0.009971 -0.002861 -0.000488 
0.009912 -0.002873 -0.000432 
0.009867 -0.002877 -0.00032 
0.009971 -0.002935 -0.000359 
0.009898 -0.00288 -0.000264 
0.009831 -0.002881 -0.000227 
0.009803 -0.002884 -0.00015 
0.009898 -0.002932 -0.000178 
0.009931 -0.002933 -0.00026 
0.00998 -0.002927 -0.000298 
0.010014 -0.002922 -0.000406 
0.009931 -0.002871 -0.000366 
0.009956 -0.002894 -0.000135 
0.009908 -0.002895 -0.000123 
0.009893 -0.002904 -5.8e-05 
0.009956 -0.002937 -7.9e-05 
0.009851 -0.002893 -0.000107 
0.009782 -0.002888 -8.6e-05 
0.009767 -0.002891 -3.4e-05 
0.009851 -0.00293 -5.3e-05 
0.009824 -0.002905 3e-06 
0.009756 -0.002895 1e-05 
0.00975 -0.002899 4.7e-05 
0.009824 -0.002931 3.4e-05 
0.009835 -0.00293 -6e-06 
0.009893 -0.002938 -1.4e-05 
0.009908 -0.002935 -6.8e-05 
0.009835 -0.002899 -4.7e-05 
0.009871 -0.002931 -0.000109 
0.009927 -0.002933 -0.000131 
0.009951 -0.00293 -0.000207 
0.009871 -0.002887 -0.000178 
0.009973 -0.002931 -0.000148 
0.010011 -0.002927 -0.000159 
0.010028 -0.002916 -0.000244 
0.009973 -0.002882 -0.000216 
0.010018 -0.002916 -0.000326 
0.010048 -0.002904 -0.000343 
0.010071 -0.002888 -0.000459 
0.010018 -0.002849 -0.000421 
0.009994 -0.002866 -0.00031 
0.009951 -0.002874 -0.000292 
0.009927 -0.002885 -0.0002 
0.009994 -0.002924 -0.000229 
0.010065 -0.002952 8e-05 
0.010034 -0.002948 8e-05 
0.010031 -0.002959 0.000116 
0.010065 -0.002975 0.000109 
0.01 -0.002943 8e-05 
0.009962 -0.002938 8e-05 
0.009958 -0.002947 0.000115 
0.01 -0.002966 0.000106 
0.009994 -0.002962 0.000145 
0.009955 -0.002955 0.000144 
0.009954 -0.002962 0.000167 
0.009994 -0.002978 0.000162 
0.009996 -0.002972 0.000137 
0.010031 -0.002978 0.000139 
0.010034 -0.002971 0.000107 
0.009996 -0.002953 0.000116 
0.009918 -0.002932 8e-05 
0.009868 -0.002925 8e-05 
0.009865 -0.002931 0.000111 
0.009918 -0.002954 0.000102 
0.009812 -0.002915 7.9e-05 
0.009747 -0.002903 7.7e-05 
0.009748 -0.002907 0.000101 
0.009812 -0.002933 9.3e-05 
0.009811 -0.002925 0.000131 
0.009751 -0.002911 0.000121 
0.009756 -0.002916 0.000137 
0.009811 -0.002938 0.000131 
0.00981 -0.002935 0.000114 
0.009865 -0.002948 0.000123 
0.009868 -0.002945 9.8e-05 
0.00981 -0.00292 0.000108 
0.009914 -0.002958 0.000181 
0.009868 -0.002947 0.000174 
0.009872 -0.002952 0.000186 
0.009914 -0.002968 0.000183 
0.009818 -0.002935 0.000163 
0.009763 -0.002921 0.000149 
0.009771 -0.002925 0.000158 
0.009818 -0.002943 0.000155 
0.009831 -0.002944 0.000182 
0.00978 -0.00293 0.000165 
0.009791 -0.002935 0.000169 
0.009831 -0.002949 0.000168 
0.009824 -0.002946 0.000163 
0.009872 -0.002959 0.00018 
0.009868 -0.002956 0.000171 
0.009824 -0.00294 0.000174 
0.009814 -0.00294 0.000145 
0.009866 -0.002953 0.000159 
0.009865 -0.00295 0.000143 
0.009814 -0.00293 0.000149 
0.009912 -0.002964 0.000169 
0.009954 -0.002974 0.000177 
0.009955 -0.00297 0.000158 
0.009912 -0.002953 0.000163 
0.009914 -0.002957 0.000129 
0.009958 -0.002966 0.000134 
0.009962 -0.002961 0.000104 
0.009914 -0.00294 0.000114 
0.009913 -0.002946 0.000141 
0.009865 -0.002937 0.000137 
0.009866 -0.002942 0.000157 
0.009913 -0.002961 0.000152 
0.009816 -0.002932 6.6e-05 
0.009874 -0.002942 6.8e-05 
0.009882 -0.00294 3.1e-05 
0.009816 -0.00291 4.5e-05 
0.009924 -0.00295 6.8e-05 
0.009967 -0.002956 6.8e-05 
0.009975 -0.00295 2.5e-05 
0.009924 -0.002924 3.9e-05 
0.009943 -0.002942 -2.1e-05 
0.009985 -0.002943 -2.6e-05 
0.009997 -0.002936 -8.7e-05 
0.009943 -0.002906 -6.7e-05 
0.009932 -0.002916 -9e-06 
0.009882 -0.002911 -4e-06 
0.009874 -0.002918 4.2e-05 
0.009932 -0.002946 2.8e-05 
0.010006 -0.00296 6.9e-05 
0.010039 -0.002962 6.9e-05 
0.010045 -0.002953 2.4e-05 
0.010006 -0.002932 3.7e-05 
0.010069 -0.002965 7e-05 
0.010095 -0.002966 7.2e-05 
0.010099 -0.002953 2.8e-05 
0.010069 -0.002938 3.8e-05 
0.010079 -0.00294 -2.8e-05 
0.010103 -0.002938 -2.5e-05 
0.010108 -0.002921 -8.6e-05 
0.010079 -0.002903 -7.2e-05 
0.010074 -0.002922 -1.3e-05 
0.010045 -0.002921 -1.5e-05 
0.010039 -0.002935 3.7e-05 
0.010074 -0.002953 2.5e-05 
0.010043 -0.002921 -0.000165 
0.01007 -0.002914 -0.000167 
0.01008 -0.002897 -0.000252 
0.010043 -0.00287 -0.000228 
0.010093 -0.002907 -0.000164 
0.010112 -0.002901 -0.000157 
0.010117 -0.002878 -0.000239 
0.010093 -0.002858 -0.000219 
0.010107 -0.002862 -0.000345 
0.010121 -0.00285 -0.000332 
0.010124 -0.002818 -0.000439 
0.010107 -0.002798 -0.000414 
0.0101 -0.002831 -0.00031 
0.01008 -0.002839 -0.000319 
0.01007 -0.002864 -0.000226 
0.0101 -0.002887 -0.000248 
0.010086 -0.002882 -0.00014 
0.01006 -0.002886 -0.000145 
0.010052 -0.002904 -7.5e-05 
0.010086 -0.002925 -9.1e-05 
0.010031 -0.002889 -0.000145 
0.009997 -0.002892 -0.000142 
0.009985 -0.002906 -7.2e-05 
0.010031 -0.002933 -9.2e-05 
0.010012 -0.00292 -1.5e-05 
0.009975 -0.002918 -1.3e-05 
0.009967 -0.002929 3.8e-05 
0.010012 -0.002952 2.4e-05 
0.010021 -0.002943 -2.9e-05 
0.010052 -0.002942 -3e-05 
0.01006 -0.002929 -9.3e-05 
0.010021 -0.002905 -7.5e-05 
0.010019 -0.002935 -0.000478 
0.010054 -0.002916 -0.000536 
0.0101 -0.002906 -0.00069 
0.010019 -0.002847 -0.000634 
0.010078 -0.002893 -0.000574 
0.010095 -0.002868 -0.000595 
0.010121 -0.002843 -0.000753 
0.010078 -0.0028 -0.000703 
0.010152 -0.002851 -0.000918 
0.010149 -0.002811 -0.000937 
0.010175 -0.002768 -0.00115 
0.010152 -0.002725 -0.001088 
0.010114 -0.002767 -0.000881 
0.0101 -0.002798 -0.000857 
0.010054 -0.002824 -0.000679 
0.010114 -0.002875 -0.000732 
0.010107 -0.002844 -0.000602 
0.010115 -0.002821 -0.000597 
0.010126 -0.002784 -0.000747 
0.010107 -0.002754 -0.000707 
0.010121 -0.002799 -0.000582 
0.010126 -0.002781 -0.00056 
0.010126 -0.002736 -0.000696 
0.010121 -0.002717 -0.000667 
0.010129 -0.002709 -0.000888 
0.010123 -0.002683 -0.000849 
0.010116 -0.00262 -0.00102 
0.010129 -0.002606 -0.000987 
0.010126 -0.002666 -0.000818 
0.010126 -0.002686 -0.000851 
0.010115 -0.002735 -0.000691 
0.010126 -0.002758 -0.000726 
0.010169 -0.00266 -0.001372 
0.010143 -0.002615 -0.001329 
0.010136 -0.002529 -0.001572 
0.010169 -0.002512 -0.001523 
0.010121 -0.002577 -0.001273 
0.010103 -0.002545 -0.001208 
0.010082 -0.002455 -0.001414 
0.010121 -0.00245 -0.001382 
0.010081 -0.002381 -0.001741 
0.010051 -0.002348 -0.001636 
0.010009 -0.00222 -0.001872 
0.010081 -0.002233 -0.001852 
0.010106 -0.002351 -0.001609 
0.010136 -0.002378 -0.001705 
0.010143 -0.002478 -0.001457 
0.010106 -0.002488 -0.001497 
0.010128 -0.002534 -0.001175 
0.010142 -0.00256 -0.001232 
0.010136 -0.002629 -0.001031 
0.010128 -0.002649 -0.00107 
0.010158 -0.002592 -0.00128 
0.010175 -0.002629 -0.001314 
0.010149 -0.002689 -0.001085 
0.010158 -0.002723 -0.001139 
0.010125 -0.00271 -0.000874 
0.010121 -0.002737 -0.000885 
0.010095 -0.002777 -0.000712 
0.010125 -0.002813 -0.000757 
0.010143 -0.002773 -0.000935 
0.010136 -0.002739 -0.000918 
0.010142 -0.002684 -0.001111 
0.010143 -0.002657 -0.001064 
0.010131 -0.002764 -0.000532 
0.010135 -0.002751 -0.0005 
0.010127 -0.002701 -0.00062 
0.010131 -0.002691 -0.000601 
0.01014 -0.00274 -0.000464 
0.010144 -0.002732 -0.000426 
0.010131 -0.002679 -0.000531 
0.01014 -0.002676 -0.00052 
0.010114 -0.002629 -0.0007 
0.010114 -0.002619 -0.000645 
0.010092 -0.00255 -0.000771 
0.010114 -0.002552 -0.000761 
0.010129 -0.002618 -0.000635 
0.010127 -0.002625 -0.000685 
0.010135 -0.002682 -0.000562 
0.010129 -0.002688 -0.000576 
0.01015 -0.002726 -0.000388 
0.010156 -0.002724 -0.000349 
0.010139 -0.002669 -0.000437 
0.01015 -0.002672 -0.000435 
0.010162 -0.002723 -0.00031 
0.010169 -0.002725 -0.000272 
0.01015 -0.002671 -0.000345 
0.010162 -0.002678 -0.00035 
0.010122 -0.002608 -0.000478 
0.010127 -0.00261 -0.000425 
0.0101 -0.002542 -0.000511 
0.010122 -0.002553 -0.000519 
0.010144 -0.002619 -0.000431 
0.010139 -0.002615 -0.000481 
0.010156 -0.002674 -0.000392 
0.010144 -0.002669 -0.00039 
0.010062 -0.002465 -0.000828 
0.010062 -0.002462 -0.000752 
0.010026 -0.002376 -0.000873 
0.010062 -0.00239 -0.000877 
0.010064 -0.002463 -0.000677 
0.010068 -0.002466 -0.000605 
0.010031 -0.002382 -0.000704 
0.010064 -0.002401 -0.000716 
0.009984 -0.002283 -0.000902 
0.009988 -0.00229 -0.000808 
0.009938 -0.002187 -0.000917 
0.009984 -0.002214 -0.000937 
0.010027 -0.002312 -0.000824 
0.010026 -0.002303 -0.000914 
0.010062 -0.002394 -0.000795 
0.010027 -0.002377 -0.000787 
0.010095 -0.002481 -0.000614 
0.010092 -0.002476 -0.000683 
0.010118 -0.002549 -0.000578 
0.010095 -0.002539 -0.000574 
0.010091 -0.002473 -0.000753 
0.010092 -0.002474 -0.000825 
0.010114 -0.002548 -0.0007 
0.010091 -0.002543 -0.000704 
0.010134 -0.002613 -0.000532 
0.010131 -0.002614 -0.000584 
0.010144 -0.002673 -0.000478 
0.010134 -0.002673 -0.000484 
0.010115 -0.002612 -0.000589 
0.010118 -0.002608 -0.000534 
0.010092 -0.00254 -0.000639 
0.010115 -0.002547 -0.000638 
0.009924 -0.002053 -0.001964 
0.009904 -0.002044 -0.001815 
0.009831 -0.001885 -0.002018 
0.009924 -0.001925 -0.002033 
0.00989 -0.00204 -0.001671 
0.009881 -0.00204 -0.001532 
0.009811 -0.001896 -0.001698 
0.00989 -0.001934 -0.00172 
0.009735 -0.00172 -0.002035 
0.00973 -0.001736 -0.001863 
0.009638 -0.00156 -0.00202 
0.009735 -0.00162 -0.002067 
0.009819 -0.001784 -0.001896 
0.009831 -0.00177 -0.002067 
0.009904 -0.001928 -0.001873 
0.009819 -0.001889 -0.001854 
0.009876 -0.002044 -0.001398 
0.009875 -0.002051 -0.00127 
0.009809 -0.001919 -0.001407 
0.009876 -0.001957 -0.001434 
0.009877 -0.002062 -0.001147 
0.009882 -0.002075 -0.001029 
0.009818 -0.001952 -0.001143 
0.009877 -0.00199 -0.001174 
0.009739 -0.001795 -0.001397 
0.009747 -0.001819 -0.001256 
0.009668 -0.001675 -0.001367 
0.009739 -0.001725 -0.001413 
0.009812 -0.001863 -0.001295 
0.009809 -0.00184 -0.001433 
0.009875 -0.001972 -0.001301 
0.009812 -0.001934 -0.001272 
0.009543 -0.001408 -0.001978 
0.009554 -0.001446 -0.001801 
0.009451 -0.001265 -0.001914 
0.009543 -0.001336 -0.001984 
0.009567 -0.001483 -0.001632 
0.009582 -0.00152 -0.001472 
0.009488 -0.001356 -0.001571 
0.009567 -0.001421 -0.001636 
0.009363 -0.00113 -0.001831 
0.009387 -0.001184 -0.001659 
0.00928 -0.001004 -0.001735 
0.009363 -0.001082 -0.001822 
0.009469 -0.001255 -0.001735 
0.009451 -0.001205 -0.001911 
0.009554 -0.001379 -0.001806 
0.009469 -0.001311 -0.001738 
0.009657 -0.001578 -0.001528 
0.009648 -0.001543 -0.001689 
0.009733 -0.001697 -0.001564 
0.009657 -0.001645 -0.001518 
0.009642 -0.001509 -0.001859 
0.009638 -0.001474 -0.002038 
0.00973 -0.001644 -0.00189 
0.009642 -0.001588 -0.001844 
0.009808 -0.001819 -0.00158 
0.009811 -0.001801 -0.001734 
0.009881 -0.001944 -0.001573 
0.009808 -0.001906 -0.00155 
0.00973 -0.001754 -0.001699 
0.009733 -0.001774 -0.001544 
0.009648 -0.001616 -0.001676 
0.00973 -0.00167 -0.001722 
0.009934 -0.002107 -0.001054 
0.009933 -0.002093 -0.001169 
0.009983 -0.002203 -0.001039 
0.009934 -0.002178 -0.001023 
0.009935 -0.002082 -0.001288 
0.00994 -0.002074 -0.001413 
0.00999 -0.002191 -0.001256 
0.009935 -0.002168 -0.001248 
0.010027 -0.002298 -0.001008 
0.010031 -0.002296 -0.001105 
0.010064 -0.00239 -0.000961 
0.010027 -0.002378 -0.000961 
0.009985 -0.002279 -0.001101 
0.009983 -0.002279 -0.001 
0.009933 -0.002171 -0.001133 
0.009985 -0.002196 -0.001146 
0.009949 -0.002069 -0.001543 
0.009963 -0.002068 -0.001678 
0.010011 -0.002193 -0.001488 
0.009949 -0.002173 -0.001489 
0.009983 -0.002072 -0.001818 
0.010009 -0.00208 -0.001962 
0.010051 -0.002214 -0.00173 
0.009983 -0.002198 -0.001743 
0.010063 -0.002314 -0.001407 
0.010082 -0.002329 -0.001509 
0.010103 -0.002428 -0.001302 
0.010063 -0.002429 -0.001325 
0.010028 -0.002323 -0.001528 
0.010011 -0.002304 -0.00142 
0.009963 -0.002183 -0.001614 
0.010028 -0.002201 -0.001608 
0.010094 -0.002478 -0.000898 
0.010099 -0.002485 -0.000971 
0.010115 -0.00256 -0.000822 
0.010094 -0.002561 -0.000836 
0.010106 -0.002497 -0.001042 
0.010116 -0.002513 -0.001111 
0.010123 -0.002586 -0.000936 
0.010106 -0.002596 -0.000963 
0.010126 -0.002635 -0.000734 
0.010126 -0.002649 -0.000778 
0.010126 -0.002703 -0.000636 
0.010126 -0.002717 -0.000661 
0.010119 -0.002661 -0.000804 
0.010115 -0.002643 -0.000754 
0.010099 -0.002576 -0.000901 
0.010119 -0.002571 -0.000881 
0.010088 -0.002519 -0.001136 
0.010077 -0.002499 -0.001061 
0.010048 -0.002408 -0.001235 
0.010088 -0.002412 -0.001218 
0.010069 -0.002483 -0.000984 
0.010064 -0.002472 -0.000906 
0.010031 -0.002383 -0.001051 
0.010069 -0.002393 -0.001046 
0.009998 -0.002291 -0.001312 
0.00999 -0.002283 -0.001205 
0.00994 -0.002168 -0.001366 
0.009998 -0.00219 -0.00137 
0.010038 -0.002298 -0.001204 
0.010048 -0.002304 -0.001305 
0.010077 -0.0024 -0.001132 
0.010038 -0.002394 -0.001143 
0.010282 -0.003154 -2.6e-05 
0.010286 -0.003154 -1.5e-05 
0.010282 -0.003156 -1.4e-05 
0.010282 -0.003155 -1.2e-05 
0.010288 -0.003153 -4e-06 
0.010289 -0.003151 8e-06 
0.010285 -0.003154 8e-06 
0.010288 -0.003153 1.2e-05 
0.01028 -0.003157 -3e-06 
0.010281 -0.003156 8e-06 
0.010277 -0.003158 8e-06 
0.01028 -0.003157 1e-05 
0.010284 -0.003155 1.1e-05 
0.010282 -0.003156 -0.0 
0.010286 -0.003154 -0.0 
0.010284 -0.003155 -3e-06 
0.010289 -0.003149 2.1e-05 
0.010288 -0.003146 3.4e-05 
0.010284 -0.003149 3.3e-05 
0.010289 -0.003148 3.8e-05 
0.010286 -0.003142 4.7e-05 
0.010284 -0.003138 6.1e-05 
0.01028 -0.003142 5.9e-05 
0.010286 -0.003141 6.4e-05 
0.010279 -0.003149 4.4e-05 
0.010276 -0.003146 5.7e-05 
0.010272 -0.003148 5.4e-05 
0.010279 -0.003148 5.9e-05 
0.010283 -0.003145 6.2e-05 
0.010284 -0.003148 4.9e-05 
0.010288 -0.003145 5.1e-05 
0.010283 -0.003146 4.6e-05 
0.010274 -0.003158 1.7e-05 
0.010273 -0.003156 2.8e-05 
0.010269 -0.003157 2.6e-05 
0.010274 -0.003157 2.9e-05 
0.010271 -0.003153 4e-05 
0.010268 -0.00315 5.2e-05 
0.010265 -0.003152 4.8e-05 
0.010271 -0.003152 5.2e-05 
0.010264 -0.003156 3.4e-05 
0.010261 -0.003153 4.5e-05 
0.010258 -0.003154 4.1e-05 
0.010264 -0.003154 4.5e-05 
0.010267 -0.003153 4.9e-05 
0.010269 -0.003156 3.8e-05 
0.010273 -0.003155 4.1e-05 
0.010267 -0.003155 3.7e-05 
0.010275 -0.00315 5.6e-05 
0.010276 -0.003153 4.4e-05 
0.01028 -0.003151 4.6e-05 
0.010275 -0.003152 4.2e-05 
0.010277 -0.003156 3.2e-05 
0.010277 -0.003157 2e-05 
0.010281 -0.003156 2.2e-05 
0.010277 -0.003156 1.8e-05 
0.010285 -0.003151 3.6e-05 
0.010285 -0.003153 2.3e-05 
0.010289 -0.003151 2.5e-05 
0.010285 -0.003152 2e-05 
0.010281 -0.003154 1.9e-05 
0.01028 -0.003152 3.2e-05 
0.010276 -0.003154 3e-05 
0.010281 -0.003154 3.4e-05 
0.01028 -0.003134 7.4e-05 
0.010275 -0.003129 8.8e-05 
0.010271 -0.003133 8.6e-05 
0.01028 -0.003133 9.2e-05 
0.010269 -0.003123 0.000101 
0.010262 -0.003117 0.000114 
0.010258 -0.003122 0.000113 
0.010269 -0.003122 0.000119 
0.010262 -0.003132 9.7e-05 
0.010255 -0.003127 0.00011 
0.010251 -0.00313 0.000107 
0.010262 -0.00313 0.000112 
0.010265 -0.003127 0.000116 
0.010271 -0.003132 0.000103 
0.010275 -0.003128 0.000105 
0.010265 -0.003128 9.9e-05 
0.010254 -0.003111 0.000127 
0.010245 -0.003105 0.00014 
0.010241 -0.00311 0.000139 
0.010254 -0.003111 0.000145 
0.010234 -0.003098 0.000152 
0.010223 -0.003091 0.000164 
0.01022 -0.003097 0.000163 
0.010234 -0.003098 0.000169 
0.010228 -0.003108 0.000149 
0.010217 -0.003101 0.000161 
0.010214 -0.003105 0.000158 
0.010228 -0.003107 0.000164 
0.010231 -0.003103 0.000167 
0.010241 -0.003109 0.000155 
0.010245 -0.003105 0.000157 
0.010231 -0.003104 0.000151 
0.01024 -0.003127 0.000115 
0.010232 -0.003122 0.000128 
0.010228 -0.003124 0.000123 
0.01024 -0.003125 0.000129 
0.010222 -0.003115 0.000141 
0.010211 -0.003109 0.000154 
0.010208 -0.003111 0.000148 
0.010222 -0.003112 0.000154 
0.010216 -0.00312 0.000129 
0.010205 -0.003113 0.000142 
0.010203 -0.003115 0.000134 
0.010216 -0.003116 0.00014 
0.010219 -0.003114 0.000147 
0.010228 -0.003121 0.000135 
0.010232 -0.003119 0.000142 
0.010219 -0.003118 0.000136 
0.010225 -0.00311 0.000159 
0.010235 -0.003116 0.000147 
0.010238 -0.003113 0.000152 
0.010225 -0.003112 0.000146 
0.010244 -0.003122 0.000134 
0.010251 -0.003128 0.000121 
0.010255 -0.003125 0.000126 
0.010244 -0.003125 0.00012 
0.01025 -0.003115 0.000142 
0.010258 -0.003121 0.000129 
0.010262 -0.003117 0.000132 
0.01025 -0.003117 0.000126 
0.010247 -0.003121 0.000123 
0.010238 -0.003115 0.000136 
0.010235 -0.003118 0.000133 
0.010247 -0.003119 0.000139 
0.010251 -0.003152 4.7e-05 
0.010246 -0.003148 5.8e-05 
0.010244 -0.003149 5.2e-05 
0.010251 -0.003149 5.6e-05 
0.010241 -0.003144 6.9e-05 
0.010235 -0.003139 8e-05 
0.010232 -0.00314 7.3e-05 
0.010241 -0.00314 7.8e-05 
0.010235 -0.003145 5.6e-05 
0.010229 -0.003141 6.6e-05 
0.010227 -0.003141 5.9e-05 
0.010235 -0.003141 6.3e-05 
0.010238 -0.003141 7.1e-05 
0.010244 -0.003145 6e-05 
0.010246 -0.003145 6.7e-05 
0.010238 -0.003145 6.2e-05 
0.010227 -0.003134 9.1e-05 
0.010219 -0.003129 0.000103 
0.010216 -0.00313 9.5e-05 
0.010227 -0.00313 0.000101 
0.01021 -0.003123 0.000115 
0.0102 -0.003116 0.000126 
0.010198 -0.003117 0.000118 
0.01021 -0.003118 0.000124 
0.010205 -0.003124 9.8e-05 
0.010195 -0.003118 0.000109 
0.010193 -0.003119 9.9e-05 
0.010205 -0.003119 0.000105 
0.010207 -0.003119 0.000115 
0.010216 -0.003125 0.000104 
0.010219 -0.003124 0.000112 
0.010207 -0.003124 0.000107 
0.010217 -0.003136 6e-05 
0.010209 -0.003131 7e-05 
0.010208 -0.003131 6.1e-05 
0.010217 -0.003131 6.6e-05 
0.010201 -0.003125 8e-05 
0.010191 -0.003119 9e-05 
0.01019 -0.003119 8e-05 
0.010201 -0.00312 8.5e-05 
0.010197 -0.003126 6e-05 
0.010188 -0.003119 6.9e-05 
0.010187 -0.00312 5.9e-05 
0.010197 -0.00312 6.4e-05 
0.010199 -0.00312 7.5e-05 
0.010208 -0.003126 6.6e-05 
0.010209 -0.003126 7.6e-05 
0.010199 -0.003125 7e-05 
0.010203 -0.00312 9.5e-05 
0.010212 -0.003126 8.5e-05 
0.010214 -0.003125 9.5e-05 
0.010203 -0.003125 8.9e-05 
0.01022 -0.003131 7.5e-05 
0.010227 -0.003137 6.5e-05 
0.010229 -0.003136 7.4e-05 
0.01022 -0.003136 6.8e-05 
0.010224 -0.003131 9.3e-05 
0.010232 -0.003136 8.2e-05 
0.010235 -0.003135 8.9e-05 
0.010224 -0.003135 8.4e-05 
0.010222 -0.003136 7.6e-05 
0.010214 -0.00313 8.7e-05 
0.010212 -0.003131 7.9e-05 
0.010222 -0.003131 8.4e-05 
0.010213 -0.003117 0.000132 
0.010222 -0.003123 0.00012 
0.010225 -0.003122 0.000128 
0.010213 -0.003121 0.000122 
0.01023 -0.003129 0.000109 
0.010238 -0.003135 9.7e-05 
0.010241 -0.003134 0.000104 
0.01023 -0.003133 9.8e-05 
0.010237 -0.003127 0.000123 
0.010244 -0.003132 0.00011 
0.010248 -0.00313 0.000116 
0.010237 -0.00313 0.00011 
0.010233 -0.003132 0.000105 
0.010225 -0.003126 0.000117 
0.010222 -0.003127 0.00011 
0.010233 -0.003128 0.000116 
0.010244 -0.00314 8.5e-05 
0.01025 -0.003144 7.3e-05 
0.010253 -0.003143 7.9e-05 
0.010244 -0.003143 7.4e-05 
0.010254 -0.003148 6.2e-05 
0.010258 -0.003152 5.1e-05 
0.010261 -0.003151 5.6e-05 
0.010254 -0.003151 5.2e-05 
0.010261 -0.003146 7.2e-05 
0.010265 -0.00315 6e-05 
0.010268 -0.003148 6.5e-05 
0.010261 -0.003149 6e-05 
0.010257 -0.00315 5.6e-05 
0.010253 -0.003146 6.8e-05 
0.01025 -0.003147 6.3e-05 
0.010257 -0.003147 6.7e-05 
0.010258 -0.003133 0.000108 
0.010264 -0.003138 9.5e-05 
0.010267 -0.003135 9.9e-05 
0.010258 -0.003135 9.3e-05 
0.010268 -0.003143 8.2e-05 
0.010272 -0.003147 6.9e-05 
0.010276 -0.003144 7.2e-05 
0.010268 -0.003144 6.7e-05 
0.010276 -0.003137 8.9e-05 
0.01028 -0.003141 7.5e-05 
0.010284 -0.003137 7.8e-05 
0.010276 -0.003138 7.2e-05 
0.010272 -0.003142 7e-05 
0.010267 -0.003137 8.3e-05 
0.010264 -0.00314 8e-05 
0.010272 -0.00314 8.6e-05 
0.010265 -0.003147 6.4e-05 
0.01026 -0.003143 7.7e-05 
0.010256 -0.003145 7.2e-05 
0.010265 -0.003145 7.7e-05 
0.010254 -0.003138 8.9e-05 
0.010248 -0.003133 0.000102 
0.010244 -0.003135 9.8e-05 
0.010254 -0.003135 0.000103 
0.010247 -0.003142 8e-05 
0.010241 -0.003137 9.2e-05 
0.010238 -0.003138 8.6e-05 
0.010247 -0.003139 9.1e-05 
0.010251 -0.003137 9.7e-05 
0.010256 -0.003142 8.5e-05 
0.01026 -0.00314 9e-05 
0.010251 -0.00314 8.5e-05 
0.01021 -0.003084 0.000175 
0.010196 -0.003076 0.000185 
0.010194 -0.003082 0.000186 
0.01021 -0.003084 0.000191 
0.010181 -0.003069 0.000195 
0.010164 -0.003061 0.000204 
0.010162 -0.003067 0.000205 
0.010181 -0.00307 0.00021 
0.010176 -0.003079 0.000195 
0.01016 -0.003071 0.000204 
0.010158 -0.003075 0.000201 
0.010176 -0.003078 0.000207 
0.010178 -0.003075 0.000209 
0.010194 -0.003082 0.0002 
0.010196 -0.003077 0.000201 
0.010178 -0.003074 0.000196 
0.010145 -0.003053 0.000212 
0.010126 -0.003045 0.000218 
0.010125 -0.00305 0.00022 
0.010145 -0.003055 0.000224 
0.010104 -0.003037 0.000223 
0.01008 -0.003028 0.000227 
0.01008 -0.003033 0.00023 
0.010104 -0.003039 0.000233 
0.010103 -0.003046 0.000226 
0.010081 -0.003037 0.00023 
0.010081 -0.003041 0.000228 
0.010103 -0.003046 0.000232 
0.010103 -0.003043 0.000234 
0.010125 -0.003051 0.00023 
0.010126 -0.003047 0.000229 
0.010103 -0.003042 0.000226 
0.01014 -0.00307 0.000206 
0.010122 -0.003062 0.000214 
0.010121 -0.003065 0.000208 
0.01014 -0.003068 0.000214 
0.010103 -0.003053 0.00022 
0.010082 -0.003044 0.000225 
0.010082 -0.003047 0.00022 
0.010103 -0.003051 0.000224 
0.010103 -0.003058 0.000208 
0.010083 -0.003049 0.000213 
0.010084 -0.003052 0.000206 
0.010103 -0.003055 0.000211 
0.010103 -0.003053 0.000218 
0.010121 -0.003062 0.000214 
0.010122 -0.00306 0.00022 
0.010103 -0.003056 0.000215 
0.010103 -0.003049 0.000229 
0.010123 -0.003057 0.000225 
0.010124 -0.003054 0.000228 
0.010103 -0.00305 0.000224 
0.010141 -0.003065 0.000219 
0.010158 -0.003074 0.000211 
0.01016 -0.00307 0.000215 
0.010141 -0.003067 0.00021 
0.010144 -0.003059 0.000224 
0.010162 -0.003067 0.000217 
0.010164 -0.003063 0.000217 
0.010144 -0.003059 0.000213 
0.010143 -0.003063 0.000213 
0.010124 -0.003055 0.00022 
0.010123 -0.003059 0.000218 
0.010143 -0.003063 0.000222 
0.010055 -0.003019 0.00023 
0.010027 -0.003009 0.00023 
0.010029 -0.003014 0.000233 
0.010055 -0.003021 0.000235 
0.009997 -0.003 0.000228 
0.009964 -0.002989 0.000224 
0.009968 -0.002993 0.000226 
0.009997 -0.003002 0.000228 
0.010002 -0.003008 0.000231 
0.009972 -0.002997 0.000226 
0.009977 -0.003001 0.000225 
0.010002 -0.003008 0.000228 
0.009999 -0.003005 0.000229 
0.010029 -0.003015 0.000233 
0.010027 -0.003012 0.000232 
0.009999 -0.003004 0.000231 
0.009928 -0.002978 0.000217 
0.009889 -0.002966 0.000206 
0.009897 -0.00297 0.000208 
0.009928 -0.002981 0.000208 
0.009847 -0.002953 0.000191 
0.009802 -0.00294 0.000172 
0.009813 -0.002944 0.000173 
0.009847 -0.002956 0.000173 
0.009866 -0.002962 0.000192 
0.009825 -0.002949 0.000172 
0.009837 -0.002954 0.00017 
0.009866 -0.002962 0.000172 
0.009856 -0.002959 0.000173 
0.009897 -0.002972 0.000193 
0.009889 -0.002969 0.000193 
0.009856 -0.002958 0.000193 
0.009952 -0.002994 0.000214 
0.00992 -0.002982 0.000203 
0.009928 -0.002986 0.000199 
0.009952 -0.002992 0.000202 
0.009886 -0.00297 0.000187 
0.00985 -0.002958 0.000167 
0.009862 -0.002962 0.000164 
0.009886 -0.002969 0.000166 
0.009906 -0.002978 0.000179 
0.009873 -0.002967 0.000159 
0.009885 -0.00297 0.000154 
0.009906 -0.002976 0.000157 
0.009896 -0.002973 0.000162 
0.009928 -0.002984 0.000181 
0.00992 -0.002981 0.000186 
0.009896 -0.002974 0.000184 
0.009876 -0.002966 0.000169 
0.009912 -0.002978 0.00019 
0.009904 -0.002975 0.000192 
0.009876 -0.002966 0.00019 
0.009945 -0.002989 0.000205 
0.009977 -0.003 0.000217 
0.009972 -0.002998 0.00022 
0.009945 -0.00299 0.000217 
0.009934 -0.002984 0.000209 
0.009968 -0.002995 0.000221 
0.009964 -0.002992 0.00022 
0.009934 -0.002982 0.000219 
0.009939 -0.002986 0.000219 
0.009904 -0.002975 0.000208 
0.009912 -0.002978 0.000206 
0.009939 -0.002986 0.000208 
0.010066 -0.003044 0.000201 
0.010046 -0.003035 0.000202 
0.010048 -0.003037 0.000193 
0.010066 -0.00304 0.000198 
0.010024 -0.003025 0.000201 
0.010001 -0.003016 0.000197 
0.010006 -0.003018 0.000189 
0.010024 -0.003021 0.000194 
0.010031 -0.003029 0.000183 
0.010011 -0.00302 0.00018 
0.010016 -0.003022 0.00017 
0.010031 -0.003024 0.000175 
0.010028 -0.003023 0.000185 
0.010048 -0.003032 0.000188 
0.010046 -0.003031 0.000197 
0.010028 -0.003028 0.000192 
0.009977 -0.003006 0.000191 
0.009952 -0.002995 0.000181 
0.009959 -0.002998 0.000173 
0.009977 -0.003002 0.000177 
0.009925 -0.002985 0.000167 
0.009897 -0.002974 0.000149 
0.009908 -0.002978 0.000143 
0.009925 -0.002982 0.000146 
0.009943 -0.002991 0.000153 
0.009919 -0.002981 0.000136 
0.009929 -0.002985 0.000129 
0.009943 -0.002988 0.000133 
0.009934 -0.002985 0.000139 
0.009959 -0.002994 0.000156 
0.009952 -0.002992 0.000163 
0.009934 -0.002988 0.00016 
0.010001 -0.003015 0.000156 
0.009981 -0.003006 0.000148 
0.009988 -0.003008 0.000139 
0.010001 -0.00301 0.000144 
0.00996 -0.002997 0.000137 
0.009939 -0.002988 0.000122 
0.009948 -0.002991 0.000116 
0.00996 -0.002993 0.000119 
0.009976 -0.003002 0.000121 
0.009957 -0.002994 0.000108 
0.009966 -0.002996 0.000101 
0.009976 -0.002998 0.000104 
0.009968 -0.002995 0.000112 
0.009988 -0.003003 0.000125 
0.009981 -0.003001 0.000133 
0.009968 -0.002999 0.000129 
0.009952 -0.00299 0.000126 
0.009974 -0.002999 0.000141 
0.009967 -0.002997 0.000149 
0.009952 -0.002994 0.000145 
0.009995 -0.003008 0.000152 
0.010016 -0.003017 0.000161 
0.010011 -0.003015 0.00017 
0.009995 -0.003013 0.000165 
0.009983 -0.003004 0.000169 
0.010006 -0.003013 0.000179 
0.010001 -0.003012 0.000187 
0.009983 -0.003008 0.000183 
0.009989 -0.003011 0.000174 
0.009967 -0.003001 0.000165 
0.009974 -0.003003 0.000157 
0.009989 -0.003006 0.000161 
0.009915 -0.002979 0.000152 
0.009944 -0.002989 0.00017 
0.009936 -0.002987 0.000176 
0.009915 -0.002982 0.000173 
0.009971 -0.003 0.000184 
0.009996 -0.00301 0.000195 
0.009991 -0.003007 0.000202 
0.009971 -0.003003 0.000198 
0.009958 -0.002995 0.000197 
0.009986 -0.003005 0.000208 
0.009981 -0.003003 0.000213 
0.009958 -0.002997 0.00021 
0.009964 -0.003 0.000204 
0.009936 -0.002989 0.000193 
0.009944 -0.002992 0.000187 
0.009964 -0.002997 0.000191 
0.01002 -0.003019 0.000202 
0.010043 -0.003029 0.000206 
0.01004 -0.003027 0.000213 
0.01002 -0.003023 0.000209 
0.010064 -0.003038 0.000207 
0.010084 -0.003047 0.000206 
0.010083 -0.003046 0.000214 
0.010064 -0.003042 0.000209 
0.010061 -0.003035 0.000222 
0.010082 -0.003044 0.000221 
0.010082 -0.003042 0.000227 
0.010061 -0.003038 0.000222 
0.010062 -0.00304 0.000216 
0.01004 -0.003031 0.000217 
0.010043 -0.003033 0.00021 
0.010062 -0.003037 0.000215 
0.010006 -0.003011 0.000225 
0.010033 -0.003021 0.00023 
0.010031 -0.003018 0.000233 
0.010006 -0.003012 0.00023 
0.010058 -0.00303 0.000232 
0.010081 -0.00304 0.000232 
0.010081 -0.003037 0.000234 
0.010058 -0.003031 0.000231 
0.010056 -0.003025 0.000236 
0.01008 -0.003034 0.000236 
0.01008 -0.00303 0.000235 
0.010056 -0.003024 0.000232 
0.010057 -0.003028 0.000232 
0.010031 -0.003018 0.000233 
0.010033 -0.003022 0.000231 
0.010057 -0.003028 0.000235 
0.010059 -0.003035 0.000227 
0.010035 -0.003025 0.000228 
0.010038 -0.003028 0.000223 
0.010059 -0.003033 0.000227 
0.010009 -0.003015 0.000226 
0.009981 -0.003004 0.000222 
0.009986 -0.003008 0.000217 
0.010009 -0.003013 0.000221 
0.010017 -0.003021 0.000216 
0.009991 -0.00301 0.000212 
0.009996 -0.003013 0.000205 
0.010017 -0.003017 0.000209 
0.010013 -0.003015 0.000215 
0.010038 -0.003025 0.00022 
0.010035 -0.003023 0.000226 
0.010013 -0.003018 0.000222 
0.010176 -0.003113 5.6e-05 
0.010165 -0.003106 6.4e-05 
0.010165 -0.003106 5.2e-05 
0.010176 -0.003107 5.9e-05 
0.010154 -0.003099 7.3e-05 
0.010143 -0.003092 8.1e-05 
0.010142 -0.003092 6.8e-05 
0.010154 -0.003093 7.5e-05 
0.010153 -0.0031 4.8e-05 
0.010142 -0.003092 5.6e-05 
0.010142 -0.003092 4.3e-05 
0.010153 -0.003092 5e-05 
0.010154 -0.003092 6.2e-05 
0.010165 -0.0031 5.4e-05 
0.010165 -0.0031 6.7e-05 
0.010154 -0.003099 6e-05 
0.010131 -0.003085 8.9e-05 
0.010119 -0.003077 9.6e-05 
0.010119 -0.003077 8.3e-05 
0.010131 -0.003078 9e-05 
0.010106 -0.003069 0.000103 
0.010093 -0.003061 0.000108 
0.010093 -0.003062 9.6e-05 
0.010106 -0.003062 0.000102 
0.010106 -0.00307 7.7e-05 
0.010094 -0.003062 8.3e-05 
0.010094 -0.003062 7e-05 
0.010106 -0.003063 7.7e-05 
0.010106 -0.003062 8.9e-05 
0.010119 -0.00307 8.4e-05 
0.010119 -0.00307 9.6e-05 
0.010106 -0.00307 9e-05 
0.01013 -0.003085 3.7e-05 
0.010118 -0.003078 4.4e-05 
0.010118 -0.003078 3.1e-05 
0.01013 -0.003078 3.8e-05 
0.010107 -0.00307 5.1e-05 
0.010095 -0.003063 5.7e-05 
0.010095 -0.003063 4.4e-05 
0.010107 -0.003063 5.1e-05 
0.010107 -0.00307 2.5e-05 
0.010096 -0.003063 3.1e-05 
0.010096 -0.003062 1.9e-05 
0.010107 -0.003063 2.5e-05 
0.010107 -0.003063 3.8e-05 
0.010118 -0.00307 3.1e-05 
0.010118 -0.00307 4.4e-05 
0.010107 -0.00307 3.8e-05 
0.010107 -0.003063 6.4e-05 
0.010119 -0.00307 5.8e-05 
0.010119 -0.00307 7.1e-05 
0.010107 -0.00307 6.4e-05 
0.01013 -0.003078 5.1e-05 
0.010142 -0.003085 4.4e-05 
0.010142 -0.003085 5.7e-05 
0.01013 -0.003085 5e-05 
0.010131 -0.003078 7.7e-05 
0.010142 -0.003085 7e-05 
0.010143 -0.003085 8.3e-05 
0.010131 -0.003085 7.6e-05 
0.01013 -0.003085 6.3e-05 
0.010119 -0.003077 7e-05 
0.010119 -0.003078 5.7e-05 
0.01013 -0.003078 6.4e-05 
0.010079 -0.003053 0.000113 
0.010065 -0.003045 0.000116 
0.010067 -0.003046 0.000104 
0.010079 -0.003047 0.00011 
0.01005 -0.003037 0.000118 
0.010035 -0.003029 0.000118 
0.010039 -0.00303 0.000107 
0.01005 -0.003031 0.000112 
0.010055 -0.003039 9.5e-05 
0.010042 -0.003031 9.6e-05 
0.010044 -0.003032 8.4e-05 
0.010055 -0.003032 9e-05 
0.010053 -0.003032 0.000101 
0.010067 -0.003039 0.0001 
0.010065 -0.003039 0.000112 
0.010053 -0.003038 0.000106 
0.01002 -0.003021 0.000116 
0.010005 -0.003014 0.000111 
0.01001 -0.003015 0.000101 
0.01002 -0.003016 0.000106 
0.009989 -0.003006 0.000104 
0.009973 -0.002999 9.3e-05 
0.009981 -0.003001 8.6e-05 
0.009989 -0.003002 8.9e-05 
0.010001 -0.003009 8.6e-05 
0.009987 -0.003003 7.8e-05 
0.009993 -0.003005 7.1e-05 
0.010001 -0.003005 7.4e-05 
0.009995 -0.003003 8.2e-05 
0.01001 -0.00301 9.1e-05 
0.010005 -0.003009 9.9e-05 
0.009995 -0.003008 9.5e-05 
0.010034 -0.003026 7.4e-05 
0.010022 -0.003019 7.2e-05 
0.010026 -0.00302 6.2e-05 
0.010034 -0.00302 6.7e-05 
0.01001 -0.003012 6.9e-05 
0.009999 -0.003006 6.3e-05 
0.010004 -0.003008 5.6e-05 
0.01001 -0.003008 5.9e-05 
0.010018 -0.003015 5.1e-05 
0.010008 -0.003009 4.8e-05 
0.010011 -0.00301 4e-05 
0.010018 -0.00301 4.4e-05 
0.010014 -0.003009 5.2e-05 
0.010026 -0.003015 5.6e-05 
0.010022 -0.003014 6.4e-05 
0.010014 -0.003014 6e-05 
0.010006 -0.003007 6.7e-05 
0.010019 -0.003013 7.3e-05 
0.010014 -0.003011 8.2e-05 
0.010006 -0.003011 7.8e-05 
0.010031 -0.003019 7.7e-05 
0.010044 -0.003026 7.9e-05 
0.010042 -0.003025 8.9e-05 
0.010031 -0.003025 8.4e-05 
0.010024 -0.003017 9.6e-05 
0.010039 -0.003024 0.0001 
0.010035 -0.003023 0.00011 
0.010024 -0.003023 0.000105 
0.010028 -0.003024 9.5e-05 
0.010014 -0.003016 9.2e-05 
0.010019 -0.003018 8.2e-05 
0.010028 -0.003018 8.7e-05 
0.010085 -0.003056 1.3e-05 
0.010074 -0.003048 1.8e-05 
0.010081 -0.00305 9e-06 
0.010085 -0.003049 1.2e-05 
0.010063 -0.003041 2.2e-05 
0.010052 -0.003034 2.7e-05 
0.010053 -0.003034 1.7e-05 
0.010063 -0.003035 2.2e-05 
0.010061 -0.003036 2e-06 
0.010068 -0.00304 8e-06 
0.010046 -0.003028 2e-06 
0.010053 -0.003034 7e-06 
0.010063 -0.003034 1.2e-05 
0.010074 -0.003042 1.7e-05 
0.010063 -0.003041 1.2e-05 
0.010042 -0.003028 3.1e-05 
0.010032 -0.003022 3.3e-05 
0.010034 -0.003022 2.3e-05 
0.010042 -0.003022 2.8e-05 
0.010023 -0.003016 3.4e-05 
0.010014 -0.003011 3.3e-05 
0.010017 -0.003011 2.5e-05 
0.010023 -0.003011 2.9e-05 
0.010026 -0.003017 1.6e-05 
0.010019 -0.003012 1.8e-05 
0.01002 -0.003012 1.1e-05 
0.010026 -0.003012 1.4e-05 
0.010025 -0.003012 2.1e-05 
0.010034 -0.003017 2.1e-05 
0.010032 -0.003017 2.9e-05 
0.010025 -0.003017 2.5e-05 
0.010026 -0.003014 1e-06 
0.01003 -0.003016 6e-06 
0.01002 -0.003009 4e-06 
0.01002 -0.003012 4e-06 
0.010027 -0.003012 8e-06 
0.010035 -0.003017 1.2e-05 
0.010027 -0.003017 8e-06 
0.010035 -0.00302 2e-06 
0.010053 -0.003029 6e-06 
0.010043 -0.003022 1.8e-05 
0.010053 -0.003029 1.6e-05 
0.010052 -0.003028 2.5e-05 
0.010043 -0.003028 2e-05 
0.010044 -0.003029 1.1e-05 
0.010035 -0.003022 1.4e-05 
0.010041 -0.003024 7e-06 
0.010044 -0.003023 9e-06 
0.010021 -0.003011 3.6e-05 
0.010031 -0.003016 3.8e-05 
0.010028 -0.003015 4.7e-05 
0.010021 -0.003015 4.3e-05 
0.010041 -0.003022 3.8e-05 
0.010051 -0.003028 3.6e-05 
0.01005 -0.003028 4.7e-05 
0.010041 -0.003028 4.1e-05 
0.010037 -0.003021 5.7e-05 
0.010048 -0.003027 5.7e-05 
0.010046 -0.003027 6.8e-05 
0.010037 -0.003026 6.3e-05 
0.010039 -0.003027 5.2e-05 
0.010028 -0.003021 5.3e-05 
0.010031 -0.003021 4.3e-05 
0.010039 -0.003021 4.8e-05 
0.010062 -0.003034 3.3e-05 
0.010073 -0.003041 2.9e-05 
0.010073 -0.003041 4.1e-05 
0.010062 -0.003041 3.5e-05 
0.010084 -0.003048 2.3e-05 
0.010096 -0.003056 1.9e-05 
0.010096 -0.003055 3.1e-05 
0.010084 -0.003055 2.4e-05 
0.010084 -0.003048 4.8e-05 
0.010095 -0.003055 4.3e-05 
0.010095 -0.003055 5.6e-05 
0.010084 -0.003055 5e-05 
0.010084 -0.003055 3.7e-05 
0.010073 -0.003048 4.2e-05 
0.010073 -0.003048 3e-05 
0.010084 -0.003048 3.6e-05 
0.010057 -0.003033 7.9e-05 
0.01007 -0.00304 7.7e-05 
0.010068 -0.00304 8.9e-05 
0.010057 -0.003039 8.3e-05 
0.010082 -0.003048 7.3e-05 
0.010094 -0.003055 6.9e-05 
0.010094 -0.003055 8.2e-05 
0.010082 -0.003055 7.5e-05 
0.01008 -0.003047 9.8e-05 
0.010093 -0.003055 9.4e-05 
0.010093 -0.003054 0.000107 
0.01008 -0.003054 0.000101 
0.010081 -0.003054 8.8e-05 
0.010068 -0.003047 9.2e-05 
0.01007 -0.003047 8e-05 
0.010081 -0.003047 8.6e-05 
0.010083 -0.003055 6.3e-05 
0.010071 -0.003047 6.7e-05 
0.010072 -0.003048 5.5e-05 
0.010083 -0.003048 6.1e-05 
0.010059 -0.00304 7.1e-05 
0.010046 -0.003033 7.3e-05 
0.010048 -0.003033 6.2e-05 
0.010059 -0.003033 6.7e-05 
0.010061 -0.003041 4.7e-05 
0.01005 -0.003034 5e-05 
0.010051 -0.003034 3.9e-05 
0.010061 -0.003034 4.4e-05 
0.01006 -0.003034 5.6e-05 
0.010072 -0.003041 5.3e-05 
0.010071 -0.003041 6.5e-05 
0.01006 -0.00304 5.9e-05 
0.009983 -0.003 9.7e-05 
0.01 -0.003007 0.000108 
0.009994 -0.003005 0.000116 
0.009983 -0.003004 0.000112 
0.010016 -0.003014 0.000116 
0.010032 -0.003022 0.000121 
0.010028 -0.003021 0.000131 
0.010016 -0.00302 0.000126 
0.010006 -0.003012 0.000135 
0.010024 -0.00302 0.000141 
0.01002 -0.003018 0.000151 
0.010006 -0.003017 0.000146 
0.010011 -0.003018 0.000136 
0.009994 -0.00301 0.00013 
0.01 -0.003012 0.000121 
0.010011 -0.003013 0.000125 
0.010048 -0.00303 0.000123 
0.010063 -0.003038 0.000124 
0.010061 -0.003037 0.000135 
0.010048 -0.003036 0.00013 
0.010078 -0.003046 0.000122 
0.010092 -0.003054 0.000119 
0.010091 -0.003054 0.000131 
0.010078 -0.003053 0.000125 
0.010075 -0.003045 0.000146 
0.01009 -0.003053 0.000143 
0.010089 -0.003052 0.000155 
0.010075 -0.003051 0.000149 
0.010076 -0.003052 0.000137 
0.010061 -0.003044 0.00014 
0.010063 -0.003044 0.000128 
0.010076 -0.003045 0.000134 
0.010035 -0.003026 0.000166 
0.010054 -0.003034 0.000168 
0.010051 -0.003033 0.000178 
0.010035 -0.003031 0.000173 
0.010071 -0.003043 0.000168 
0.010088 -0.003052 0.000166 
0.010087 -0.003051 0.000177 
0.010071 -0.003049 0.000171 
0.010068 -0.003041 0.000189 
0.010086 -0.00305 0.000187 
0.010085 -0.003049 0.000197 
0.010068 -0.003046 0.000191 
0.01007 -0.003048 0.000182 
0.010051 -0.003039 0.000183 
0.010054 -0.00304 0.000173 
0.01007 -0.003042 0.000179 
0.010073 -0.00305 0.00016 
0.010056 -0.003041 0.000162 
0.010058 -0.003043 0.000151 
0.010073 -0.003044 0.000157 
0.010038 -0.003033 0.000163 
0.01002 -0.003024 0.00016 
0.010024 -0.003025 0.00015 
0.010038 -0.003027 0.000156 
0.010045 -0.003035 0.000141 
0.010028 -0.003027 0.00014 
0.010032 -0.003028 0.000129 
0.010045 -0.003029 0.000134 
0.010042 -0.003028 0.000145 
0.010058 -0.003036 0.000147 
0.010056 -0.003036 0.000157 
0.010042 -0.003034 0.000152 
0.010105 -0.003062 0.000115 
0.010119 -0.00307 0.000109 
0.010119 -0.00307 0.000122 
0.010105 -0.003069 0.000115 
0.010131 -0.003078 0.000102 
0.010144 -0.003085 9.5e-05 
0.010144 -0.003085 0.000107 
0.010131 -0.003084 0.000101 
0.010132 -0.003077 0.000127 
0.010145 -0.003085 0.00012 
0.010146 -0.003085 0.000131 
0.010132 -0.003084 0.000125 
0.010132 -0.003084 0.000113 
0.010119 -0.003076 0.000121 
0.010119 -0.003077 0.000108 
0.010132 -0.003077 0.000115 
0.010155 -0.003093 8.7e-05 
0.010166 -0.0031 7.9e-05 
0.010167 -0.0031 9.1e-05 
0.010155 -0.003099 8.5e-05 
0.010177 -0.003107 7e-05 
0.010187 -0.003113 6.2e-05 
0.010188 -0.003113 7.3e-05 
0.010177 -0.003113 6.7e-05 
0.010179 -0.003107 9.4e-05 
0.01019 -0.003113 8.4e-05 
0.010191 -0.003113 9.5e-05 
0.010179 -0.003113 8.9e-05 
0.010178 -0.003113 7.8e-05 
0.010167 -0.003106 8.7e-05 
0.010166 -0.003106 7.6e-05 
0.010178 -0.003107 8.2e-05 
0.01016 -0.003092 0.000134 
0.010172 -0.003099 0.000125 
0.010173 -0.003099 0.000136 
0.01016 -0.003098 0.00013 
0.010183 -0.003106 0.000116 
0.010193 -0.003113 0.000106 
0.010195 -0.003113 0.000116 
0.010183 -0.003112 0.00011 
0.010187 -0.003105 0.000136 
0.010198 -0.003112 0.000126 
0.0102 -0.003112 0.000135 
0.010187 -0.003111 0.000129 
0.010185 -0.003111 0.00012 
0.010173 -0.003105 0.00013 
0.010172 -0.003105 0.00012 
0.010185 -0.003106 0.000126 
0.010181 -0.003113 0.0001 
0.01017 -0.003106 0.000109 
0.010169 -0.003106 9.9e-05 
0.010181 -0.003107 0.000105 
0.010158 -0.003098 0.000119 
0.010146 -0.003091 0.000128 
0.010145 -0.003091 0.000117 
0.010158 -0.003092 0.000123 
0.010156 -0.003099 9.6e-05 
0.010144 -0.003092 0.000105 
0.010144 -0.003092 9.3e-05 
0.010156 -0.003092 9.9e-05 
0.010157 -0.003092 0.000111 
0.010169 -0.0031 0.000103 
0.01017 -0.0031 0.000114 
0.010157 -0.003099 0.000108 
0.010103 -0.003056 0.000203 
0.01012 -0.003065 0.000198 
0.010121 -0.003063 0.000206 
0.010103 -0.003061 0.000201 
0.010137 -0.003073 0.000192 
0.010152 -0.003081 0.000184 
0.010154 -0.00308 0.000192 
0.010137 -0.003078 0.000186 
0.010139 -0.00307 0.000207 
0.010155 -0.003078 0.0002 
0.010157 -0.003076 0.000206 
0.010139 -0.003073 0.000201 
0.010138 -0.003076 0.000194 
0.010121 -0.003067 0.000202 
0.01012 -0.003069 0.000194 
0.010138 -0.003072 0.0002 
0.010166 -0.003089 0.000175 
0.010179 -0.003097 0.000165 
0.010182 -0.003095 0.000174 
0.010166 -0.003094 0.000168 
0.010192 -0.003104 0.000155 
0.010203 -0.003111 0.000144 
0.010205 -0.003109 0.000152 
0.010192 -0.003108 0.000146 
0.010197 -0.003101 0.000171 
0.010208 -0.003108 0.000159 
0.010211 -0.003106 0.000166 
0.010197 -0.003104 0.00016 
0.010194 -0.003106 0.000153 
0.010182 -0.003099 0.000165 
0.010179 -0.003101 0.000157 
0.010194 -0.003102 0.000163 
0.010174 -0.003081 0.000203 
0.010189 -0.003089 0.000193 
0.010191 -0.003086 0.000197 
0.010174 -0.003083 0.000192 
0.010202 -0.003096 0.000183 
0.010214 -0.003103 0.000171 
0.010217 -0.0031 0.000176 
0.010202 -0.003098 0.00017 
0.010207 -0.003089 0.00019 
0.01022 -0.003096 0.000179 
0.010223 -0.003091 0.000181 
0.010207 -0.00309 0.000175 
0.010205 -0.003094 0.000173 
0.010191 -0.003087 0.000184 
0.010189 -0.003091 0.000181 
0.010205 -0.003093 0.000187 
0.010199 -0.003102 0.000166 
0.010186 -0.003094 0.000177 
0.010184 -0.003097 0.000171 
0.010199 -0.003099 0.000177 
0.010172 -0.003087 0.000188 
0.010157 -0.003079 0.000197 
0.010155 -0.003081 0.000192 
0.010172 -0.003084 0.000198 
0.010168 -0.003092 0.000175 
0.010154 -0.003084 0.000185 
0.010152 -0.003086 0.000178 
0.010168 -0.003088 0.000183 
0.01017 -0.003086 0.000191 
0.010184 -0.003094 0.000181 
0.010186 -0.003091 0.000188 
0.01017 -0.003089 0.000182 
0.010189 -0.00311 0.000138 
0.010177 -0.003103 0.000149 
0.010175 -0.003104 0.00014 
0.010189 -0.003105 0.000146 
0.010165 -0.003095 0.000159 
0.010151 -0.003087 0.000169 
0.010149 -0.003089 0.00016 
0.010165 -0.00309 0.000166 
0.010161 -0.003097 0.00014 
0.010148 -0.00309 0.00015 
0.010147 -0.00309 0.000139 
0.010161 -0.003091 0.000145 
0.010163 -0.003091 0.000156 
0.010175 -0.003098 0.000146 
0.010177 -0.003098 0.000156 
0.010163 -0.003096 0.00015 
0.010136 -0.003079 0.000178 
0.01012 -0.003071 0.000186 
0.01012 -0.003072 0.000176 
0.010136 -0.003074 0.000182 
0.010103 -0.003062 0.000192 
0.010085 -0.003053 0.000197 
0.010086 -0.003055 0.000188 
0.010103 -0.003057 0.000194 
0.010104 -0.003065 0.000173 
0.010087 -0.003056 0.000178 
0.010088 -0.003058 0.000167 
0.010104 -0.003059 0.000173 
0.010103 -0.003059 0.000184 
0.01012 -0.003067 0.000179 
0.01012 -0.003066 0.000189 
0.010103 -0.003064 0.000183 
0.010133 -0.003083 0.000137 
0.010119 -0.003075 0.000144 
0.010119 -0.003076 0.000133 
0.010133 -0.003077 0.000139 
0.010104 -0.003067 0.000151 
0.010089 -0.003059 0.000156 
0.01009 -0.00306 0.000145 
0.010104 -0.003061 0.000151 
0.010105 -0.003068 0.000127 
0.010091 -0.00306 0.000133 
0.010092 -0.003061 0.000121 
0.010105 -0.003062 0.000127 
0.010105 -0.003061 0.000139 
0.010119 -0.003069 0.000134 
0.010119 -0.003069 0.000146 
0.010105 -0.003068 0.000139 
0.010104 -0.00306 0.000162 
0.010119 -0.003068 0.000157 
0.010119 -0.003068 0.000168 
0.010104 -0.003066 0.000162 
0.010134 -0.003076 0.000151 
0.010147 -0.003084 0.000143 
0.010148 -0.003084 0.000154 
0.010134 -0.003083 0.000148 
0.010135 -0.003075 0.000172 
0.010149 -0.003083 0.000165 
0.010151 -0.003082 0.000175 
0.010135 -0.003081 0.000168 
0.010134 -0.003082 0.000158 
0.010119 -0.003074 0.000166 
0.010119 -0.003074 0.000155 
0.010134 -0.003076 0.000162 
0.009839 -0.002952 0.000171 
0.009883 -0.002965 0.000191 
0.009877 -0.002962 0.000187 
0.009839 -0.002949 0.000188 
0.009923 -0.002978 0.000206 
0.009961 -0.002989 0.000217 
0.009958 -0.002985 0.000212 
0.009923 -0.002974 0.000212 
0.009916 -0.002971 0.000194 
0.009956 -0.002982 0.000203 
0.009955 -0.002978 0.000192 
0.009916 -0.002964 0.000195 
0.009919 -0.002969 0.000205 
0.009877 -0.002957 0.000196 
0.009883 -0.002962 0.000202 
0.009919 -0.002974 0.000201 
0.009995 -0.002999 0.000224 
0.010026 -0.003009 0.000229 
0.010025 -0.003005 0.000223 
0.009995 -0.002995 0.000223 
0.010054 -0.003018 0.000231 
0.010081 -0.003026 0.000232 
0.010081 -0.003022 0.000226 
0.010054 -0.003014 0.000224 
0.010055 -0.003009 0.000216 
0.010082 -0.003017 0.000217 
0.010083 -0.003011 0.000204 
0.010055 -0.003001 0.000205 
0.010054 -0.003008 0.000216 
0.010025 -0.002999 0.000217 
0.010026 -0.003004 0.000225 
0.010054 -0.003014 0.000225 
0.009992 -0.002983 0.000182 
0.010026 -0.002991 0.000185 
0.010028 -0.002985 0.000165 
0.009992 -0.00297 0.000169 
0.010057 -0.002998 0.000187 
0.010085 -0.003004 0.000188 
0.010087 -0.002996 0.000167 
0.010057 -0.002985 0.00017 
0.010062 -0.002983 0.00014 
0.010089 -0.002988 0.000141 
0.010092 -0.002978 0.00011 
0.010062 -0.002964 0.000116 
0.010059 -0.002975 0.000146 
0.010028 -0.002969 0.000146 
0.010026 -0.002978 0.00017 
0.010059 -0.002991 0.000166 
0.010055 -0.002993 0.00019 
0.010025 -0.002985 0.00019 
0.010025 -0.002992 0.000205 
0.010055 -0.003004 0.000204 
0.009992 -0.002977 0.000189 
0.009955 -0.002968 0.000186 
0.009956 -0.002974 0.0002 
0.009992 -0.002987 0.000198 
0.009993 -0.002989 0.000215 
0.009958 -0.00298 0.000211 
0.009961 -0.002984 0.000219 
0.009993 -0.002995 0.000219 
0.009992 -0.002992 0.00021 
0.010025 -0.003001 0.000214 
0.010025 -0.002996 0.000202 
0.009992 -0.002984 0.000204 
0.010105 -0.003035 0.00023 
0.010127 -0.003042 0.000226 
0.010128 -0.003037 0.000221 
0.010105 -0.003031 0.000219 
0.010147 -0.00305 0.000222 
0.010166 -0.003058 0.000215 
0.010167 -0.003052 0.000211 
0.010147 -0.003047 0.000208 
0.01015 -0.003038 0.000209 
0.010169 -0.003045 0.000204 
0.010171 -0.003037 0.000194 
0.01015 -0.003031 0.000191 
0.010149 -0.00304 0.000201 
0.010128 -0.003032 0.000207 
0.010127 -0.003039 0.000214 
0.010149 -0.003045 0.000217 
0.010183 -0.003065 0.000208 
0.010198 -0.003072 0.0002 
0.010201 -0.003066 0.000197 
0.010183 -0.003062 0.000192 
0.010212 -0.003079 0.000191 
0.010225 -0.003086 0.000181 
0.010228 -0.003079 0.000179 
0.010212 -0.003077 0.000173 
0.010217 -0.003065 0.000183 
0.01023 -0.003072 0.000175 
0.010232 -0.003062 0.000169 
0.010217 -0.00306 0.000163 
0.010215 -0.003069 0.000169 
0.010201 -0.003062 0.000179 
0.010198 -0.00307 0.000183 
0.010215 -0.003072 0.000188 
0.01019 -0.003034 0.000176 
0.010206 -0.00304 0.000171 
0.010207 -0.003028 0.000157 
0.01019 -0.003024 0.000154 
0.010221 -0.003046 0.000166 
0.010234 -0.003052 0.00016 
0.010235 -0.00304 0.000148 
0.010221 -0.003038 0.000143 
0.010222 -0.00302 0.000136 
0.010235 -0.003026 0.000133 
0.010235 -0.00301 0.000114 
0.010222 -0.003008 0.00011 
0.010222 -0.003024 0.000128 
0.010207 -0.003017 0.000132 
0.010206 -0.003031 0.000149 
0.010222 -0.003034 0.000153 
0.010219 -0.00305 0.000155 
0.010204 -0.003043 0.000162 
0.010203 -0.003053 0.000172 
0.010219 -0.003056 0.000176 
0.010189 -0.003036 0.000168 
0.010171 -0.003029 0.000174 
0.010169 -0.003039 0.000186 
0.010189 -0.003043 0.000189 
0.010185 -0.003055 0.000187 
0.010167 -0.003047 0.000194 
0.010166 -0.003055 0.0002 
0.010185 -0.003059 0.000204 
0.010187 -0.003052 0.000198 
0.010203 -0.003058 0.000191 
0.010204 -0.00305 0.000183 
0.010187 -0.003046 0.000179 
0.010119 -0.002968 7.5e-05 
0.01014 -0.00297 7.7e-05 
0.010142 -0.002954 3.5e-05 
0.010119 -0.002943 4.2e-05 
0.010159 -0.002972 8e-05 
0.010177 -0.002975 8.3e-05 
0.010177 -0.002957 4.6e-05 
0.010159 -0.002949 4.8e-05 
0.010161 -0.002936 -6e-06 
0.010176 -0.002936 2e-06 
0.010175 -0.002912 -4.9e-05 
0.010161 -0.002904 -4.4e-05 
0.01016 -0.002928 6e-06 
0.010142 -0.002926 -0.0 
0.01014 -0.002946 4.5e-05 
0.01016 -0.002955 4e-05 
0.010193 -0.002978 8.6e-05 
0.010208 -0.002982 8.8e-05 
0.010207 -0.002962 5.6e-05 
0.010193 -0.002958 5.5e-05 
0.010221 -0.002987 9e-05 
0.010234 -0.002992 9.2e-05 
0.010232 -0.002971 6.5e-05 
0.010221 -0.00297 6.1e-05 
0.010217 -0.002943 2.6e-05 
0.010228 -0.002947 3.4e-05 
0.010224 -0.00292 -3e-06 
0.010217 -0.00292 -6e-06 
0.01022 -0.002946 3e-05 
0.010207 -0.002941 2.4e-05 
0.010208 -0.002964 5.8e-05 
0.01022 -0.002966 6.1e-05 
0.010184 -0.002884 -9.1e-05 
0.010196 -0.002885 -7.5e-05 
0.010189 -0.002851 -0.000132 
0.010184 -0.002849 -0.000131 
0.010207 -0.002887 -6e-05 
0.010217 -0.00289 -4.4e-05 
0.010209 -0.002856 -9.2e-05 
0.010207 -0.002857 -9.5e-05 
0.010189 -0.002815 -0.000171 
0.010198 -0.002817 -0.000145 
0.010185 -0.002774 -0.000205 
0.010189 -0.002777 -0.000209 
0.010199 -0.002819 -0.000149 
0.010189 -0.002815 -0.000172 
0.010196 -0.002852 -0.000113 
0.010199 -0.002853 -0.000112 
0.010213 -0.00289 -4.8e-05 
0.010201 -0.002885 -6.1e-05 
0.010204 -0.002915 -1.5e-05 
0.010213 -0.002916 -1.4e-05 
0.010188 -0.002881 -7.4e-05 
0.010175 -0.002879 -8.8e-05 
0.010176 -0.002907 -3.4e-05 
0.010188 -0.002912 -3.7e-05 
0.010192 -0.002936 1.8e-05 
0.010177 -0.002932 1.2e-05 
0.010177 -0.002953 5.2e-05 
0.010192 -0.002959 5.1e-05 
0.010191 -0.002937 1e-05 
0.010204 -0.00294 1.8e-05 
0.010201 -0.002914 -2.5e-05 
0.010191 -0.00291 -2.5e-05 
0.010222 -0.00299 8.7e-05 
0.010208 -0.002984 8.7e-05 
0.010208 -0.003002 0.000112 
0.010222 -0.003005 0.000115 
0.010193 -0.002978 8.7e-05 
0.010176 -0.002973 8.6e-05 
0.010175 -0.00299 0.000115 
0.010193 -0.002995 0.000115 
0.010191 -0.003011 0.000136 
0.010174 -0.003004 0.000139 
0.010173 -0.003017 0.000158 
0.010191 -0.003023 0.00016 
0.010192 -0.00301 0.00014 
0.010208 -0.003015 0.000138 
0.010208 -0.003 0.000116 
0.010192 -0.002995 0.000114 
0.010158 -0.002968 8.5e-05 
0.010138 -0.002963 8.4e-05 
0.010136 -0.002979 0.000116 
0.010158 -0.002987 0.000114 
0.010116 -0.002959 8.2e-05 
0.010092 -0.002955 8.1e-05 
0.010089 -0.002969 0.000116 
0.010116 -0.002981 0.000111 
0.010112 -0.002987 0.000144 
0.010087 -0.002981 0.000145 
0.010085 -0.002991 0.000169 
0.010112 -0.003002 0.000167 
0.010114 -0.002992 0.000142 
0.010136 -0.002996 0.000142 
0.010138 -0.002984 0.000112 
0.010114 -0.002974 0.000116 
0.010152 -0.003022 0.000179 
0.010131 -0.003015 0.000183 
0.01013 -0.003024 0.000196 
0.010152 -0.003031 0.000198 
0.010108 -0.003008 0.000186 
0.010083 -0.003001 0.000188 
0.010082 -0.003009 0.000203 
0.010108 -0.003018 0.000203 
0.010106 -0.003024 0.000211 
0.010081 -0.003016 0.000214 
0.010081 -0.003022 0.000222 
0.010106 -0.00303 0.000224 
0.010107 -0.003024 0.000215 
0.01013 -0.003031 0.000213 
0.010131 -0.003024 0.000201 
0.010107 -0.003016 0.0002 
0.01011 -0.00301 0.000187 
0.010133 -0.003016 0.000186 
0.010135 -0.003007 0.000166 
0.01011 -0.002998 0.000167 
0.010154 -0.003022 0.000183 
0.010173 -0.003028 0.00018 
0.010174 -0.003017 0.000163 
0.010154 -0.003011 0.000162 
0.010157 -0.003001 0.000142 
0.010175 -0.003005 0.000141 
0.010176 -0.002991 0.000115 
0.010157 -0.002984 0.000116 
0.010155 -0.002998 0.000141 
0.010135 -0.002992 0.000143 
0.010133 -0.003004 0.000165 
0.010155 -0.003012 0.000165 
0.010237 -0.003092 0.00017 
0.010248 -0.003099 0.000158 
0.01025 -0.003092 0.000158 
0.010237 -0.003092 0.000152 
0.010257 -0.003105 0.000146 
0.010265 -0.003111 0.000134 
0.010268 -0.003105 0.000134 
0.010257 -0.003105 0.000128 
0.010263 -0.003091 0.000145 
0.010271 -0.003097 0.000133 
0.010273 -0.003088 0.000131 
0.010263 -0.003089 0.000124 
0.01026 -0.003098 0.000126 
0.01025 -0.003091 0.000138 
0.010248 -0.003098 0.00014 
0.01026 -0.003099 0.000146 
0.010272 -0.003117 0.000121 
0.010278 -0.003123 0.000108 
0.010282 -0.003117 0.000109 
0.010272 -0.003117 0.000102 
0.010283 -0.003128 9.4e-05 
0.010287 -0.003133 8e-05 
0.010291 -0.003127 8.2e-05 
0.010283 -0.003128 7.5e-05 
0.01029 -0.003115 9.6e-05 
0.010294 -0.00312 8.3e-05 
0.010297 -0.003112 8.3e-05 
0.01029 -0.003115 7.5e-05 
0.010287 -0.003122 7.5e-05 
0.010282 -0.003116 8.9e-05 
0.010278 -0.003123 8.9e-05 
0.010287 -0.003122 9.5e-05 
0.010283 -0.003084 0.000116 
0.01029 -0.003091 0.000105 
0.010291 -0.003079 0.000102 
0.010283 -0.003081 9.3e-05 
0.010295 -0.003097 9.4e-05 
0.0103 -0.003103 8.2e-05 
0.010302 -0.003092 8e-05 
0.010295 -0.003095 7.1e-05 
0.010298 -0.003073 8.7e-05 
0.010303 -0.00308 7.7e-05 
0.010303 -0.003065 7.3e-05 
0.010298 -0.003069 6.2e-05 
0.010297 -0.003083 6.7e-05 
0.010291 -0.003076 7.8e-05 
0.01029 -0.003088 8.2e-05 
0.010297 -0.003086 9.1e-05 
0.010293 -0.003106 7.3e-05 
0.010287 -0.003099 8.6e-05 
0.010285 -0.003109 8.8e-05 
0.010293 -0.003107 9.5e-05 
0.010281 -0.003093 9.7e-05 
0.010273 -0.003086 0.000108 
0.010271 -0.003096 0.000112 
0.010281 -0.003095 0.00012 
0.010276 -0.00311 0.000102 
0.010268 -0.003104 0.000114 
0.010265 -0.003111 0.000115 
0.010276 -0.003111 0.000122 
0.010278 -0.003103 0.000121 
0.010285 -0.003109 0.000109 
0.010287 -0.003101 0.000108 
0.010278 -0.003102 0.0001 
0.01029 -0.003137 6.6e-05 
0.010292 -0.003141 5.3e-05 
0.010296 -0.003136 5.4e-05 
0.01029 -0.003138 4.8e-05 
0.010293 -0.003144 3.9e-05 
0.010293 -0.003147 2.6e-05 
0.010297 -0.003143 2.7e-05 
0.010293 -0.003145 2.1e-05 
0.010301 -0.003134 4.2e-05 
0.010301 -0.003138 2.8e-05 
0.010304 -0.003132 2.8e-05 
0.010301 -0.003134 2.2e-05 
0.010297 -0.00314 2.2e-05 
0.010296 -0.003136 3.5e-05 
0.010292 -0.003141 3.5e-05 
0.010297 -0.00314 4e-05 
0.010292 -0.00315 1.3e-05 
0.01029 -0.003151 0.0 
0.010294 -0.003148 0.0 
0.010292 -0.00315 -4e-06 
0.010286 -0.003152 -1.2e-05 
0.010282 -0.003153 -2.4e-05 
0.010286 -0.00315 -2.4e-05 
0.010286 -0.003152 -2.8e-05 
0.010294 -0.003145 -1.3e-05 
0.01029 -0.003147 -2.5e-05 
0.010294 -0.003142 -2.6e-05 
0.010294 -0.003145 -3e-05 
0.01029 -0.003149 -2.9e-05 
0.010294 -0.003148 -1.7e-05 
0.01029 -0.003151 -1.6e-05 
0.01029 -0.003149 -1.2e-05 
0.010307 -0.003128 1.5e-05 
0.010305 -0.003132 1e-06 
0.010308 -0.003124 2e-06 
0.010307 -0.003128 -6e-06 
0.010302 -0.003135 -1.2e-05 
0.010298 -0.003137 -2.6e-05 
0.010302 -0.003131 -2.6e-05 
0.010302 -0.003135 -3.2e-05 
0.010308 -0.00312 -1.1e-05 
0.010305 -0.003123 -2.5e-05 
0.010308 -0.003114 -2.5e-05 
0.010308 -0.00312 -3.3e-05 
0.010305 -0.003128 -3.3e-05 
0.010308 -0.003124 -2e-05 
0.010305 -0.003132 -1.9e-05 
0.010305 -0.003128 -1.2e-05 
0.010298 -0.00314 -3.1e-05 
0.010301 -0.003138 -1.9e-05 
0.010297 -0.003143 -1.8e-05 
0.010298 -0.00314 -1.3e-05 
0.010303 -0.003135 -5e-06 
0.010304 -0.003132 8e-06 
0.010301 -0.003138 8e-06 
0.010303 -0.003135 1.5e-05 
0.010296 -0.003146 -4e-06 
0.010297 -0.003143 8e-06 
0.010293 -0.003148 8e-06 
0.010296 -0.003146 1.3e-05 
0.0103 -0.003141 1.4e-05 
0.010297 -0.003143 1e-06 
0.010301 -0.003138 1e-06 
0.0103 -0.003141 -5e-06 
0.010307 -0.003056 5.9e-05 
0.010311 -0.003064 5e-05 
0.01031 -0.003046 4.7e-05 
0.010307 -0.003053 3.3e-05 
0.010313 -0.003072 4e-05 
0.010315 -0.003079 2.9e-05 
0.010315 -0.003063 2.8e-05 
0.010313 -0.003071 1.4e-05 
0.010311 -0.003036 3.5e-05 
0.010314 -0.003045 2.7e-05 
0.010311 -0.003024 2.5e-05 
0.010311 -0.003034 8e-06 
0.010313 -0.003053 1.2e-05 
0.01031 -0.003044 2e-05 
0.010311 -0.003062 2.4e-05 
0.010313 -0.003055 3.8e-05 
0.010315 -0.003086 1.7e-05 
0.010315 -0.003093 4e-06 
0.010316 -0.003079 5e-06 
0.010315 -0.003086 -8e-06 
0.010313 -0.003099 -1e-05 
0.01031 -0.003104 -2.3e-05 
0.010312 -0.003092 -2.2e-05 
0.010313 -0.003099 -3.3e-05 
0.010315 -0.003071 -6e-06 
0.010313 -0.003078 -1.9e-05 
0.010313 -0.003062 -1.7e-05 
0.010315 -0.003072 -3.2e-05 
0.010314 -0.003086 -3.3e-05 
0.010316 -0.003079 -2e-05 
0.010315 -0.003093 -2e-05 
0.010314 -0.003086 -8e-06 
0.01031 -0.003012 1.6e-05 
0.010312 -0.003023 8e-06 
0.010307 -0.002999 9e-06 
0.01031 -0.003012 -1.1e-05 
0.010312 -0.003034 -2e-06 
0.010311 -0.003044 -1.3e-05 
0.010309 -0.003023 -9e-06 
0.010312 -0.003035 -2.9e-05 
0.010304 -0.002986 4e-06 
0.010305 -0.002999 -5e-06 
0.0103 -0.002973 1e-06 
0.010304 -0.002988 -2.3e-05 
0.010309 -0.003013 -2.6e-05 
0.010307 -0.003 -1.8e-05 
0.010312 -0.003024 -1.9e-05 
0.010309 -0.003011 1e-06 
0.010314 -0.003055 -3.1e-05 
0.010314 -0.003045 -2e-05 
0.010315 -0.003063 -2e-05 
0.010314 -0.003053 -4e-06 
0.010313 -0.003034 -1e-05 
0.010311 -0.003023 -2e-06 
0.010314 -0.003044 0.0 
0.010313 -0.003034 1.7e-05 
0.010316 -0.003071 -9e-06 
0.010315 -0.003062 2e-06 
0.010315 -0.003079 4e-06 
0.010316 -0.003071 1.7e-05 
0.010315 -0.003054 1.7e-05 
0.010315 -0.003063 6e-06 
0.010314 -0.003044 7e-06 
0.010315 -0.003054 -9e-06 
0.010311 -0.00311 -3.4e-05 
0.010313 -0.003105 -2e-05 
0.010311 -0.003115 -2e-05 
0.010311 -0.00311 -1.1e-05 
0.010314 -0.003099 -7e-06 
0.010314 -0.003093 5e-06 
0.010312 -0.003105 6e-06 
0.010314 -0.003099 1.6e-05 
0.01031 -0.00312 -6e-06 
0.01031 -0.003115 7e-06 
0.010307 -0.003124 8e-06 
0.01031 -0.00312 1.6e-05 
0.010312 -0.00311 1.6e-05 
0.010311 -0.003115 2e-06 
0.010313 -0.003105 3e-06 
0.010312 -0.00311 -7e-06 
0.010313 -0.003085 1.7e-05 
0.010311 -0.003078 2.8e-05 
0.01031 -0.003092 3e-05 
0.010313 -0.003086 4.1e-05 
0.010307 -0.00307 3.8e-05 
0.010303 -0.003062 4.7e-05 
0.010303 -0.003077 5.2e-05 
0.010307 -0.003072 6.3e-05 
0.010305 -0.003097 4.5e-05 
0.010302 -0.00309 5.6e-05 
0.0103 -0.003102 5.9e-05 
0.010305 -0.003099 6.8e-05 
0.010307 -0.003086 6.6e-05 
0.01031 -0.003093 5.5e-05 
0.010311 -0.00308 5.3e-05 
0.010307 -0.003085 4.2e-05 
0.010304 -0.003127 2.1e-05 
0.010303 -0.003123 3.5e-05 
0.0103 -0.00313 3.5e-05 
0.010304 -0.003127 4.2e-05 
0.010301 -0.003117 4.8e-05 
0.010297 -0.003112 6.1e-05 
0.010294 -0.00312 6.2e-05 
0.010301 -0.003118 6.9e-05 
0.010294 -0.003132 4.9e-05 
0.010291 -0.003127 6.2e-05 
0.010287 -0.003133 6.2e-05 
0.010294 -0.003132 6.8e-05 
0.010297 -0.003125 6.9e-05 
0.0103 -0.00313 5.5e-05 
0.010303 -0.003123 5.6e-05 
0.010297 -0.003125 4.9e-05 
0.010303 -0.003109 6.9e-05 
0.010306 -0.003114 5.6e-05 
0.010308 -0.003104 5.6e-05 
0.010303 -0.003108 4.7e-05 
0.010307 -0.003119 4.3e-05 
0.010307 -0.003124 2.9e-05 
0.01031 -0.003115 2.9e-05 
0.010307 -0.003119 2.1e-05 
0.010312 -0.003099 4.2e-05 
0.010312 -0.003105 2.9e-05 
0.010314 -0.003093 2.9e-05 
0.010312 -0.003098 1.8e-05 
0.01031 -0.00311 2e-05 
0.010308 -0.003104 3.2e-05 
0.010306 -0.003114 3.4e-05 
0.01031 -0.00311 4.3e-05 
0.010177 -0.002729 -0.000235 
0.010185 -0.002735 -0.0002 
0.010165 -0.002681 -0.000259 
0.010177 -0.002692 -0.00027 
0.010194 -0.002743 -0.000166 
0.010202 -0.002753 -0.000136 
0.010182 -0.0027 -0.000181 
0.010194 -0.002714 -0.000198 
0.010149 -0.002631 -0.000276 
0.010158 -0.002642 -0.000231 
0.01013 -0.002578 -0.000286 
0.010149 -0.002596 -0.000306 
0.010173 -0.002658 -0.00025 
0.010165 -0.002645 -0.000291 
0.010185 -0.002702 -0.000233 
0.010173 -0.00269 -0.000219 
0.010212 -0.002764 -0.000107 
0.010221 -0.002777 -8.1e-05 
0.010201 -0.002726 -0.000115 
0.010212 -0.002742 -0.000136 
0.01023 -0.002791 -5.9e-05 
0.010239 -0.002806 -3.9e-05 
0.010221 -0.002758 -6.2e-05 
0.01023 -0.002775 -8.7e-05 
0.010188 -0.002687 -0.000118 
0.010199 -0.002704 -8.7e-05 
0.010174 -0.002646 -0.000115 
0.010188 -0.002668 -0.000144 
0.010211 -0.002724 -0.000114 
0.010201 -0.002705 -0.000143 
0.010221 -0.002758 -0.00011 
0.010211 -0.002741 -8.7e-05 
0.010109 -0.002523 -0.000288 
0.01012 -0.002541 -0.000236 
0.010085 -0.002467 -0.000283 
0.010109 -0.002493 -0.000314 
0.010132 -0.002561 -0.000188 
0.010145 -0.002582 -0.000145 
0.010112 -0.002512 -0.000177 
0.010132 -0.002539 -0.000212 
0.01006 -0.00241 -0.00027 
0.010074 -0.002435 -0.000211 
0.010032 -0.002353 -0.000248 
0.01006 -0.002385 -0.000289 
0.010098 -0.002465 -0.00025 
0.010085 -0.002439 -0.000305 
0.01012 -0.002515 -0.000261 
0.010098 -0.002489 -0.000228 
0.010162 -0.002606 -0.000177 
0.010151 -0.002584 -0.000218 
0.010178 -0.002648 -0.000179 
0.010162 -0.002627 -0.000152 
0.01014 -0.002564 -0.000264 
0.01013 -0.002545 -0.000314 
0.010158 -0.002612 -0.00026 
0.01014 -0.002592 -0.000237 
0.010191 -0.002688 -0.000175 
0.010182 -0.002672 -0.000211 
0.010202 -0.002727 -0.000166 
0.010191 -0.002712 -0.000147 
0.010168 -0.002655 -0.00019 
0.010178 -0.00267 -0.000152 
0.010151 -0.002609 -0.000193 
0.010168 -0.002629 -0.000218 
0.010248 -0.002822 -2.2e-05 
0.010257 -0.002838 -9e-06 
0.01024 -0.002793 -2.2e-05 
0.010248 -0.002812 -4.9e-05 
0.010265 -0.002855 2e-06 
0.010272 -0.002873 9e-06 
0.010258 -0.002831 4e-06 
0.010265 -0.00285 -2.5e-05 
0.01023 -0.002764 -1.7e-05 
0.01024 -0.002785 -2e-06 
0.01022 -0.002734 -8e-06 
0.01023 -0.002758 -4.3e-05 
0.010249 -0.002806 -3.4e-05 
0.01024 -0.002785 -4.8e-05 
0.010257 -0.002831 -3.6e-05 
0.010249 -0.002812 -7e-06 
0.010279 -0.00289 1.3e-05 
0.010284 -0.002908 1.4e-05 
0.010272 -0.00287 1.6e-05 
0.010279 -0.00289 -1.4e-05 
0.010289 -0.002925 1.2e-05 
0.010292 -0.002942 7e-06 
0.010283 -0.002909 1.4e-05 
0.010289 -0.002928 -1.6e-05 
0.010265 -0.00285 2.2e-05 
0.010271 -0.002871 2.2e-05 
0.010257 -0.002829 3.1e-05 
0.010265 -0.002853 -5e-06 
0.010278 -0.002893 -1.1e-05 
0.010272 -0.002871 -1.1e-05 
0.010284 -0.002909 -1.3e-05 
0.010278 -0.00289 1.7e-05 
0.010208 -0.002704 6e-06 
0.01022 -0.00273 2.2e-05 
0.010196 -0.002674 2.5e-05 
0.010208 -0.002703 -1.8e-05 
0.01023 -0.002757 3.4e-05 
0.01024 -0.002783 4.1e-05 
0.01022 -0.002732 5.2e-05 
0.01023 -0.002761 9e-06 
0.010183 -0.002644 4.9e-05 
0.010196 -0.002676 6.4e-05 
0.010169 -0.002615 7.7e-05 
0.010183 -0.002649 2.5e-05 
0.010208 -0.002708 1.7e-05 
0.010196 -0.002676 1e-06 
0.01022 -0.002732 -3e-06 
0.010208 -0.002703 4.1e-05 
0.010249 -0.002809 1e-06 
0.01024 -0.002783 -6e-06 
0.010258 -0.00283 -9e-06 
0.010249 -0.002806 2.8e-05 
0.01023 -0.002757 -1.7e-05 
0.01022 -0.00273 -3.3e-05 
0.01024 -0.002782 -2.8e-05 
0.01023 -0.002758 8e-06 
0.010265 -0.00285 -1.5e-05 
0.010258 -0.002828 -2.3e-05 
0.010272 -0.00287 -1.8e-05 
0.010265 -0.002851 1.2e-05 
0.010249 -0.002806 1e-05 
0.010258 -0.002828 1.8e-05 
0.01024 -0.002782 2e-05 
0.010249 -0.002806 -1.6e-05 
0.010004 -0.002295 -0.000218 
0.010023 -0.002328 -0.000156 
0.009975 -0.002237 -0.00018 
0.010004 -0.002277 -0.000233 
0.010042 -0.002362 -0.0001 
0.010062 -0.002398 -4.9e-05 
0.010018 -0.002313 -5.9e-05 
0.010042 -0.002353 -0.000115 
0.009946 -0.00218 -0.000134 
0.009969 -0.002222 -7e-05 
0.009916 -0.002124 -8.1e-05 
0.009946 -0.00217 -0.000145 
0.009996 -0.002265 -0.00013 
0.009975 -0.002224 -0.000193 
0.010023 -0.002315 -0.000171 
0.009996 -0.002275 -0.000117 
0.010082 -0.002435 -5e-06 
0.010101 -0.002472 3.3e-05 
0.010061 -0.002393 3.6e-05 
0.010082 -0.002433 -2.2e-05 
0.01012 -0.00251 6.5e-05 
0.010139 -0.002548 9.1e-05 
0.010104 -0.002475 0.000106 
0.01012 -0.002515 4.5e-05 
0.010041 -0.002352 8.4e-05 
0.010065 -0.002396 0.000121 
0.010021 -0.002311 0.000138 
0.010041 -0.002358 6.8e-05 
0.010083 -0.00244 5.7e-05 
0.010061 -0.002395 2e-05 
0.010101 -0.002474 1.5e-05 
0.010083 -0.002434 7.4e-05 
0.009886 -0.002068 -2e-05 
0.009915 -0.002118 4.6e-05 
0.009857 -0.002013 4.9e-05 
0.009886 -0.002067 -2.6e-05 
0.009944 -0.002168 0.000104 
0.009973 -0.00222 0.000154 
0.00992 -0.002122 0.000172 
0.009944 -0.002175 9.4e-05 
0.009827 -0.00196 0.000124 
0.009862 -0.002018 0.000189 
0.009799 -0.001907 0.000207 
0.009827 -0.001967 0.000121 
0.009888 -0.002074 0.000107 
0.009857 -0.002016 4.4e-05 
0.009915 -0.00212 3.7e-05 
0.009888 -0.002067 0.000114 
0.009995 -0.00227 8.1e-05 
0.009968 -0.002218 3.1e-05 
0.010017 -0.00231 2.5e-05 
0.009995 -0.002263 9.4e-05 
0.009942 -0.002168 -2.5e-05 
0.009916 -0.002118 -8.9e-05 
0.009969 -0.002216 -8.1e-05 
0.009942 -0.002169 -1.6e-05 
0.01004 -0.002351 -2.3e-05 
0.010018 -0.002308 -7.3e-05 
0.010062 -0.002393 -6.6e-05 
0.01004 -0.002352 -8e-06 
0.009993 -0.002264 -1.2e-05 
0.010017 -0.002307 3.9e-05 
0.009968 -0.002216 4.2e-05 
0.009993 -0.002263 -2.4e-05 
0.010153 -0.002585 3.5e-05 
0.010137 -0.002547 1e-05 
0.010168 -0.002614 5e-06 
0.010153 -0.00258 5.7e-05 
0.010119 -0.002509 -2.1e-05 
0.010102 -0.002472 -5.8e-05 
0.010137 -0.002545 -5.1e-05 
0.010119 -0.002511 -2e-06 
0.010182 -0.002644 -1.9e-05 
0.010168 -0.002612 -4.5e-05 
0.010196 -0.002674 -3.9e-05 
0.010182 -0.002645 4e-06 
0.010153 -0.002581 1e-06 
0.010168 -0.002612 2.8e-05 
0.010137 -0.002545 3e-05 
0.010153 -0.00258 -2e-05 
0.010084 -0.002435 -0.000101 
0.010066 -0.0024 -0.00015 
0.010105 -0.002478 -0.00013 
0.010084 -0.002444 -8.3e-05 
0.010049 -0.002365 -0.000205 
0.010032 -0.002331 -0.000265 
0.010074 -0.002415 -0.000231 
0.010049 -0.002382 -0.000188 
0.010126 -0.002521 -0.000152 
0.010112 -0.002493 -0.000198 
0.010145 -0.002564 -0.000168 
0.010126 -0.002536 -0.000131 
0.01009 -0.002462 -0.000158 
0.010105 -0.00249 -0.000111 
0.010066 -0.002412 -0.000133 
0.01009 -0.002446 -0.000178 
0.010208 -0.002704 -5.3e-05 
0.010197 -0.002678 -7.7e-05 
0.01022 -0.002734 -6.2e-05 
0.010208 -0.002711 -2.8e-05 
0.010185 -0.002653 -0.000106 
0.010174 -0.002629 -0.000139 
0.010199 -0.002689 -0.000113 
0.010185 -0.002666 -8.2e-05 
0.01023 -0.002764 -6.7e-05 
0.010221 -0.002744 -8.9e-05 
0.010239 -0.002793 -6.6e-05 
0.01023 -0.002775 -4e-05 
0.01021 -0.002723 -6e-05 
0.01022 -0.002743 -3.7e-05 
0.010197 -0.002688 -5.3e-05 
0.01021 -0.002711 -8.6e-05 
0.010157 -0.002604 -0.000105 
0.01017 -0.002628 -7.1e-05 
0.01014 -0.002562 -9e-05 
0.010157 -0.00259 -0.000129 
0.010183 -0.002653 -4e-05 
0.010196 -0.002678 -1.5e-05 
0.010168 -0.002617 -2.2e-05 
0.010183 -0.002645 -6.4e-05 
0.010121 -0.002519 -6.8e-05 
0.010137 -0.00255 -3.1e-05 
0.010102 -0.002477 -4e-05 
0.010121 -0.002511 -8.8e-05 
0.010154 -0.002581 -7.6e-05 
0.01014 -0.002551 -0.000111 
0.01017 -0.002617 -9.4e-05 
0.010154 -0.002589 -5.4e-05 
0.010298 -0.00296 -2e-05 
0.010294 -0.002943 -1.5e-05 
0.010302 -0.002973 -1.7e-05 
0.010298 -0.002957 8e-06 
0.01029 -0.002926 -1.3e-05 
0.010284 -0.002908 -1.4e-05 
0.010294 -0.002942 -1.1e-05 
0.01029 -0.002926 1.4e-05 
0.010305 -0.002986 -1.2e-05 
0.010301 -0.002972 -7e-06 
0.010307 -0.002999 -5e-06 
0.010305 -0.002987 1.6e-05 
0.010298 -0.002958 1.5e-05 
0.010302 -0.002972 1.1e-05 
0.010294 -0.002942 1.2e-05 
0.010298 -0.002958 -1.3e-05 
0.010278 -0.00289 -1.8e-05 
0.010271 -0.002872 -2.4e-05 
0.010282 -0.00291 -1.4e-05 
0.010278 -0.002894 1e-05 
0.010263 -0.002855 -3.4e-05 
0.010255 -0.002838 -4.6e-05 
0.010268 -0.002878 -2.8e-05 
0.010263 -0.002864 -6e-06 
0.010285 -0.002929 -8e-06 
0.010278 -0.002914 -1.2e-05 
0.010287 -0.002947 2e-06 
0.010285 -0.002936 2e-05 
0.010275 -0.002902 8e-06 
0.010282 -0.002915 1.4e-05 
0.010271 -0.002879 3e-06 
0.010275 -0.002894 -2e-05 
0.010308 -0.003011 5e-06 
0.010304 -0.003 9e-06 
0.010307 -0.003023 1.5e-05 
0.010308 -0.003014 3.2e-05 
0.010299 -0.002988 1.3e-05 
0.010293 -0.002976 1.4e-05 
0.010298 -0.003001 2.5e-05 
0.010299 -0.002993 4e-05 
0.010306 -0.003034 2.8e-05 
0.010301 -0.003024 3.4e-05 
0.010303 -0.003044 4.1e-05 
0.010306 -0.003038 5.4e-05 
0.010303 -0.003017 4.8e-05 
0.010307 -0.003026 4.2e-05 
0.010304 -0.003003 3.7e-05 
0.010303 -0.003012 2.1e-05 
0.010293 -0.002966 3.1e-05 
0.010299 -0.002977 3e-05 
0.010291 -0.002948 2.3e-05 
0.010293 -0.00296 3e-06 
0.010303 -0.002989 2.7e-05 
0.010307 -0.003001 2.3e-05 
0.010301 -0.002974 2e-05 
0.010303 -0.002986 -0.0 
0.010288 -0.00293 1.7e-05 
0.010294 -0.002944 1.7e-05 
0.010284 -0.00291 1.3e-05 
0.010288 -0.002926 -1.1e-05 
0.010297 -0.002958 -5e-06 
0.010291 -0.002943 -5e-06 
0.010299 -0.002973 3e-06 
0.010297 -0.002961 2.2e-05 
0.010246 -0.002821 -6.2e-05 
0.010238 -0.002806 -8e-05 
0.010252 -0.002848 -5.3e-05 
0.010246 -0.002835 -3.3e-05 
0.010229 -0.002791 -0.000101 
0.01022 -0.002777 -0.000125 
0.010234 -0.002822 -8.7e-05 
0.010229 -0.002811 -7.1e-05 
0.010255 -0.002874 -4e-05 
0.010246 -0.002862 -5.4e-05 
0.010255 -0.002899 -2.4e-05 
0.010255 -0.00289 -1.1e-05 
0.010243 -0.002853 -3.9e-05 
0.010252 -0.002864 -2.4e-05 
0.010238 -0.002823 -5.1e-05 
0.010243 -0.002835 -6.9e-05 
0.010211 -0.002765 -0.000151 
0.010202 -0.002753 -0.000179 
0.010216 -0.0028 -0.000131 
0.010211 -0.002791 -0.000119 
0.010194 -0.002744 -0.00021 
0.010185 -0.002736 -0.000242 
0.010198 -0.002783 -0.000182 
0.010194 -0.002778 -0.000175 
0.010218 -0.002833 -0.000107 
0.010209 -0.002825 -0.000127 
0.010217 -0.002863 -7.9e-05 
0.010218 -0.00286 -7.3e-05 
0.010207 -0.002821 -0.000121 
0.010216 -0.002827 -9.8e-05 
0.010202 -0.002784 -0.000146 
0.010207 -0.002791 -0.000155 
0.010254 -0.002921 -6e-06 
0.010244 -0.002912 -1.4e-05 
0.01025 -0.002942 1.6e-05 
0.010254 -0.002938 2.5e-05 
0.010234 -0.002904 -2.5e-05 
0.010224 -0.002897 -3.6e-05 
0.010228 -0.002926 2e-06 
0.010234 -0.002925 7e-06 
0.010243 -0.00296 3.9e-05 
0.010232 -0.002953 3.5e-05 
0.010234 -0.002976 6.3e-05 
0.010243 -0.002976 6.8e-05 
0.010239 -0.002952 4e-05 
0.01025 -0.002958 4.6e-05 
0.010244 -0.002931 1.7e-05 
0.010239 -0.002934 9e-06 
0.010227 -0.002894 -3e-05 
0.010237 -0.0029 -1.7e-05 
0.010228 -0.002866 -5.5e-05 
0.010227 -0.00287 -6.3e-05 
0.010246 -0.002907 -5e-06 
0.010255 -0.002915 6e-06 
0.010246 -0.002881 -2.4e-05 
0.010246 -0.002888 -3.6e-05 
0.010225 -0.002834 -7.6e-05 
0.010234 -0.002843 -5.7e-05 
0.01022 -0.0028 -9.4e-05 
0.010225 -0.00281 -0.000108 
0.010237 -0.002851 -7e-05 
0.010228 -0.002841 -8.7e-05 
0.010237 -0.002879 -4.9e-05 
0.010237 -0.002873 -3.8e-05 
0.010298 -0.003053 5.6e-05 
0.010292 -0.003045 6.3e-05 
0.010292 -0.003061 7.1e-05 
0.010298 -0.003058 8.2e-05 
0.010285 -0.003036 7e-05 
0.010277 -0.003028 7.5e-05 
0.010277 -0.003046 8.7e-05 
0.010285 -0.003043 9.6e-05 
0.010284 -0.003068 8.7e-05 
0.010277 -0.003061 9.6e-05 
0.010275 -0.003074 0.000103 
0.010284 -0.003072 0.000111 
0.010285 -0.003059 0.000105 
0.010292 -0.003066 9.6e-05 
0.010292 -0.00305 8.9e-05 
0.010285 -0.003054 7.9e-05 
0.010268 -0.00302 7.9e-05 
0.010258 -0.003012 8.3e-05 
0.010258 -0.00303 9.8e-05 
0.010268 -0.003029 0.000106 
0.010247 -0.003004 8.5e-05 
0.010235 -0.002997 8.7e-05 
0.010235 -0.003015 0.000107 
0.010247 -0.003016 0.000112 
0.010247 -0.003038 0.000118 
0.010235 -0.003031 0.000123 
0.010234 -0.003045 0.000136 
0.010247 -0.003046 0.000142 
0.010247 -0.003032 0.000129 
0.010258 -0.003038 0.000124 
0.010258 -0.003022 0.00011 
0.010247 -0.003022 0.000103 
0.010265 -0.003079 0.000119 
0.010255 -0.003072 0.000129 
0.010253 -0.003082 0.000134 
0.010265 -0.003082 0.000141 
0.010244 -0.003064 0.000138 
0.010232 -0.003057 0.000147 
0.01023 -0.003068 0.000154 
0.010244 -0.003069 0.00016 
0.01024 -0.003084 0.000149 
0.010228 -0.003077 0.00016 
0.010225 -0.003084 0.000163 
0.01024 -0.003086 0.000169 
0.010242 -0.003078 0.000165 
0.010253 -0.003085 0.000155 
0.010255 -0.003075 0.000151 
0.010242 -0.003075 0.000145 
0.010246 -0.003058 0.000152 
0.010257 -0.003065 0.000145 
0.010258 -0.003052 0.000136 
0.010246 -0.003052 0.000129 
0.010267 -0.003071 0.000136 
0.010275 -0.003078 0.000126 
0.010277 -0.003066 0.00012 
0.010267 -0.003067 0.000113 
0.010268 -0.003045 0.000119 
0.010277 -0.003052 0.000112 
0.010277 -0.003036 0.000101 
0.010268 -0.003038 9.3e-05 
0.010268 -0.003053 0.000104 
0.010258 -0.003046 0.000111 
0.010257 -0.00306 0.000121 
0.010268 -0.003059 0.000128 
0.010246 -0.002997 9.2e-05 
0.010256 -0.003003 9.2e-05 
0.010254 -0.002982 7.1e-05 
0.010246 -0.002984 6.4e-05 
0.010266 -0.00301 9.1e-05 
0.010275 -0.003017 8.8e-05 
0.010273 -0.002996 7.2e-05 
0.010266 -0.003 6.3e-05 
0.010259 -0.002965 5e-05 
0.010268 -0.002972 5.4e-05 
0.010263 -0.002945 3.1e-05 
0.010259 -0.00295 2.1e-05 
0.010263 -0.002976 4.4e-05 
0.010254 -0.002968 4.2e-05 
0.010256 -0.002991 6.4e-05 
0.010263 -0.002989 7.2e-05 
0.010283 -0.003025 8.5e-05 
0.010291 -0.003032 8e-05 
0.010288 -0.003012 6.9e-05 
0.010283 -0.003017 5.8e-05 
0.010297 -0.00304 7.4e-05 
0.010303 -0.003048 6.7e-05 
0.010301 -0.003029 6.1e-05 
0.010297 -0.003035 4.8e-05 
0.010291 -0.002998 5.5e-05 
0.010298 -0.003007 5.2e-05 
0.010293 -0.002983 4.2e-05 
0.010291 -0.002991 2.7e-05 
0.010295 -0.003014 3.8e-05 
0.010288 -0.003004 4.2e-05 
0.010291 -0.003026 5.3e-05 
0.010295 -0.00302 6.6e-05 
0.010264 -0.002924 1.5e-05 
0.010272 -0.002934 2.2e-05 
0.010263 -0.002901 0.0 
0.010264 -0.00291 -1.5e-05 
0.01028 -0.002944 2.7e-05 
0.010287 -0.002955 3e-05 
0.010278 -0.002923 1.6e-05 
0.01028 -0.002934 -2e-06 
0.01026 -0.002876 -1.1e-05 
0.010268 -0.002888 -0.0 
0.010255 -0.002849 -1.8e-05 
0.01026 -0.002863 -3.9e-05 
0.010271 -0.0029 -1.9e-05 
0.010263 -0.002887 -2.9e-05 
0.010272 -0.002922 -7e-06 
0.010271 -0.002912 9e-06 
0.010286 -0.002964 1.4e-05 
0.010279 -0.002953 1.1e-05 
0.010285 -0.00298 2.8e-05 
0.010286 -0.002973 4.2e-05 
0.010271 -0.002942 7e-06 
0.010263 -0.002931 2e-06 
0.010268 -0.00296 2.5e-05 
0.010271 -0.002954 3.7e-05 
0.010281 -0.002995 4.4e-05 
0.010273 -0.002985 4.4e-05 
0.010275 -0.003008 6.1e-05 
0.010281 -0.003004 7.1e-05 
0.010277 -0.00298 5.5e-05 
0.010285 -0.002989 5.6e-05 
0.010279 -0.002963 4e-05 
0.010277 -0.00297 2.7e-05 
Stress 3 7788 double
100091.323872 -14.929541 2.086633 
100140.610667 -40.069876 3.271047 
100005.1966 -5.213902 9.084061 
100073.819618 -4.462062 28.603319 
100054.744782 -4.752433 39.318846 
100019.921794 -15.146324 30.838357 
100126.892171 -13.303388 33.675356 
100186.39925 -32.123663 35.002264 
100176.242636 -29.602272 55.85672 
100117.282127 -46.46017 44.505962 
100088.424642 -13.79221 67.816727 
100158.653962 -29.182887 79.097054 
100134.656102 -29.633958 102.588565 
100078.806527 -46.534984 91.252649 
100102.098607 -46.54914 67.279128 
100048.353166 -26.74472 59.194346 
100066.297531 -26.714221 42.104403 
100111.725126 -14.570535 51.100816 
100127.217446 -50.296548 23.651835 
100081.61241 -25.666468 25.389034 
100118.213569 -23.719647 14.124482 
100134.663336 -17.378883 17.691173 
100042.083268 -13.106842 20.404542 
100047.563438 2.756301 11.311323 
100030.478998 2.113851 18.188595 
100029.615586 -1.771184 5.886492 
100056.887018 -1.97962 -0.152857 
100074.191366 -4.488427 9.757049 
100041.684045 -2.152505 3.234115 
100059.460173 0.968866 6.004056 
100088.19139 -3.565784 17.467224 
100055.268356 -9.676494 9.897985 
99941.220879 -4.643805 69.675351 
99888.016879 -3.723869 82.096348 
99862.064588 -11.281673 76.372564 
100020.768801 -14.593338 102.736459 
100104.615753 -30.231369 126.123808 
100068.431348 -30.316501 149.866424 
100011.074833 -47.08239 138.527326 
99925.745284 -14.406649 139.34058 
100026.158176 -30.542219 173.838205 
99977.865276 -31.1701 197.847439 
99915.686612 -47.682189 186.380539 
99966.869292 -47.287679 162.358538 
99880.966881 -26.984283 130.35508 
99934.610392 -26.641498 112.498223 
99976.733022 -14.445809 120.943088 
99558.202031 -21.633736 42.07402 
99690.386731 -4.419347 121.284633 
99601.36639 -13.33108 125.375384 
99600.877187 -7.689314 130.043693 
99804.949835 -17.050618 176.028436 
99923.77157 -32.15035 221.579657 
99863.349092 -30.762851 245.115737 
99795.343177 -47.631456 233.415554 
99654.583456 -17.595452 210.189859 
99797.01429 -30.768243 269.249912 
99724.673513 -32.251571 293.157745 
99646.531066 -46.69679 282.971494 
99724.16083 -46.765878 258.189781 
99603.000613 -25.178476 205.355604 
99683.212682 -27.018704 184.125742 
99733.598237 -13.933572 192.905338 
99858.014825 -48.173985 210.272016 
99749.958473 -29.154774 166.790646 
99818.90205 -27.755309 148.449732 
99868.374372 -14.984067 158.033292 
99632.973934 -19.902182 108.563817 
99663.989083 11.075773 56.525899 
99496.08264 3.800638 49.405363 
99603.881417 -10.467485 34.763448 
99795.522536 -12.304651 87.063329 
99800.517174 2.205195 33.150427 
99701.800757 -4.759589 32.201229 
99787.672901 -2.50738 29.329117 
99865.319847 -0.635162 26.462564 
99729.838692 8.791557 42.497039 
99827.357781 -2.455106 95.046782 
99760.677509 -2.980434 108.294186 
99719.514313 -14.756946 97.894137 
100048.557735 -46.767851 115.026072 
99980.371552 -26.536784 94.770561 
100018.741695 -26.390911 77.737458 
100057.782629 -15.140899 85.036693 
99919.01151 -10.752917 65.421877 
99921.268676 -2.261111 20.849967 
99860.895115 -1.091594 25.858893 
100009.689283 -11.221884 45.592435 
99996.669577 -8.535648 14.492055 
99921.490483 -0.343015 22.039415 
99969.546328 -0.631963 17.724704 
99966.88944 -2.885569 16.060424 
100022.723169 -7.701104 47.432175 
99986.175945 -5.468464 57.790576 
99966.846363 -10.784129 54.537644 
99305.322852 -6.183108 161.639576 
99190.210114 -3.792523 176.14197 
99122.565574 -10.33747 167.100099 
99478.085362 -16.360975 246.844197 
99646.824213 -32.163069 317.044474 
99563.363781 -32.292482 341.029441 
99468.936993 -46.748086 330.107104 
99275.730414 -16.78529 285.035672 
99474.697351 -32.901775 364.832409 
99381.040765 -34.344465 387.655262 
99266.061964 -46.803448 377.092956 
99370.378156 -46.707856 353.762578 
99182.223336 -26.989874 275.057573 
99299.0829 -25.982554 257.177669 
99379.777143 -16.020786 265.979444 
98575.887584 -14.877833 57.215227 
98808.503603 -19.849728 203.032085 
98667.898949 -14.509064 210.56425 
98589.417703 -3.184915 223.618645 
99051.407363 -13.86704 318.113778 
99282.451151 -30.940195 409.564117 
99178.399507 -30.712191 431.712724 
99043.242085 -42.280888 422.186502 
98800.364552 -18.688927 349.77491 
99070.594429 -31.997218 452.934943 
98958.842148 -31.203475 473.316566 
98794.716915 -39.145745 465.299193 
98922.711339 -40.522097 445.351747 
98668.857845 -20.511439 347.654501 
98815.06648 -21.466081 333.303431 
98927.739156 -20.320237 333.337806 
99159.337307 -44.823951 398.235416 
98947.420518 -24.431555 309.966405 
99058.662608 -28.832948 293.156948 
99167.565311 -19.933605 303.060922 
98779.065879 -3.124651 221.106719 
98565.0405 8.788648 88.458914 
98363.195671 13.811624 91.80747 
98699.580786 -35.483008 64.526101 
98982.116591 -14.432905 176.599656 
98995.934373 11.006905 77.850548 
98745.692198 -13.505675 61.224536 
98922.683485 -2.358285 59.890324 
99126.284173 -0.170998 62.662047 
98881.38755 16.13557 102.122645 
99072.353464 -4.393259 191.679831 
98953.455478 -4.879739 204.827301 
98832.443695 -23.440506 186.007362 
97843.747093 1.275032 107.947109 
98199.108678 -8.544651 252.644232 
98032.10729 -3.375003 268.231208 
97840.73807 -4.518506 248.140136 
98530.812752 -17.264018 382.475174 
98843.892636 -30.129263 492.772295 
98726.290545 -28.979124 511.070036 
98525.604104 -34.322362 502.633379 
98247.153553 -16.994535 412.88211 
98606.959478 -28.636544 527.537804 
98486.750068 -28.139559 540.719504 
98242.93283 -28.489854 533.641672 
98384.967322 -31.641231 519.160304 
98026.095426 -17.918954 401.499875 
98195.878566 -17.356764 389.121591 
98390.005435 -15.953627 398.642513 
97071.229892 -21.381439 67.334798 
97517.49341 -30.915573 272.164075 
97340.859226 -20.081161 274.209234 
97091.847649 8.107735 302.138745 
97958.605945 -8.704253 428.79135 
98366.174925 -20.248727 551.062036 
98245.482595 -18.821653 559.753266 
97957.603789 -13.997296 557.291306 
97662.25726 -15.60152 438.956769 
98127.462456 -18.647358 564.677667 
98012.901377 -14.322968 565.954721 
97667.115003 -0.566006 566.948881 
97813.320394 -7.519917 565.961121 
97349.628762 0.638969 444.8502 
97534.406712 -3.228891 444.258571 
97808.670471 -19.613973 433.426756 
98103.703038 -21.556091 543.867559 
97710.462929 -8.699825 424.726055 
97856.078575 -17.897109 412.698816 
98105.331418 -18.235219 423.972781 
97363.098571 6.017372 316.154387 
97235.014379 -60.739989 72.912887 
96623.735039 29.290582 128.720701 
96901.46015 14.243975 130.268088 
97635.090361 -11.50814 250.487823 
97653.587025 25.611979 134.606552 
97168.186238 -23.267413 73.933917 
97428.31115 0.587317 79.556728 
97482.913846 21.708125 169.405048 
97866.751476 -6.485494 283.389232 
97712.813657 2.56757 288.168186 
97434.562345 -25.503896 249.772728 
98662.366992 -36.924973 484.607973 
98359.800361 -18.609608 376.416568 
98516.883049 -19.876435 362.347327 
98667.918438 -18.065081 366.233946 
98038.810003 -2.964745 244.251427 
97680.527447 8.513291 86.42154 
98037.104572 -8.88697 89.959909 
98413.993623 -1.590704 231.997008 
98407.926821 -16.199988 65.141754 
97920.999201 12.595409 90.496348 
98148.395741 13.983645 91.789301 
98226.175132 -14.404138 76.050714 
98518.678833 -12.660721 223.335368 
98362.047765 -10.743256 238.02637 
98230.359709 -1.671104 238.847045 
99560.918417 -46.897518 306.38577 
99407.825356 -25.760551 239.527862 
99508.135777 -25.918372 221.705739 
99569.818332 -16.706286 228.088538 
99252.87139 -8.995296 157.404806 
99086.617139 1.799442 58.846085 
99485.971405 -8.125776 136.655083 
99254.042271 -4.95213 52.876736 
99480.81416 -8.677242 39.567885 
99236.650495 3.938303 56.843754 
99373.106681 5.014895 53.865857 
99373.482164 -7.657392 45.173148 
99512.521519 -9.029806 135.007 
99413.112106 -7.578471 147.966068 
99374.150462 -8.043611 147.204389 
96195.666549 16.746898 168.840851 
96807.315275 -11.442111 304.617039 
96644.15295 -18.250958 309.992506 
96187.4719 8.600423 270.502881 
97378.72244 -11.024621 443.696968 
97903.76198 -9.573439 562.972695 
97802.177841 -5.417451 554.682334 
97387.272579 18.456577 557.243668 
97129.244341 -6.658767 429.576839 
97710.727476 0.162569 538.614584 
97630.45469 15.805113 514.251743 
97144.815295 47.21113 520.855034 
97258.832814 30.085934 542.710022 
96648.81145 18.009683 422.827847 
96813.123533 15.087769 434.93361 
97247.342256 -11.290899 441.82654 
95417.333457 -41.208271 49.795296 
96195.18117 -20.882601 237.495517 
96072.985929 -24.552042 229.760939 
95446.548055 48.278004 281.243089 
96913.36543 -4.077152 381.207285 
97564.052313 22.106983 482.884261 
97515.438253 28.69116 440.541091 
96940.369179 83.752924 464.326163 
96773.990677 6.895158 317.468602 
97489.394097 42.559635 387.768658 
97489.550443 57.295867 322.012525 
96811.949597 133.296967 352.178143 
96863.649143 106.265973 414.77545 
96103.006329 73.590528 344.12376 
96220.416392 55.955998 382.952651 
96832.176183 2.055588 351.594594 
97035.918429 65.889318 499.199514 
96366.025124 45.910521 414.994473 
96527.21343 34.876923 416.067166 
97017.15731 5.18991 405.554245 
95649.639099 34.388028 311.300999 
95616.675288 -16.539085 26.066085 
94588.382873 62.062056 130.885877 
94868.248356 49.440807 158.62801 
96002.701448 -7.246315 242.093306 
96016.007466 -0.890247 217.239647 
95762.532094 -64.546364 33.626272 
95438.647445 -15.810887 75.082757 
95159.848577 13.035698 170.700248 
96521.366182 11.796958 294.268301 
96331.742193 -35.072116 250.55844 
95928.057114 20.170724 346.337528 
94883.468463 29.606945 204.896835 
95859.260662 -14.873777 188.647561 
95863.999308 -28.022528 151.203619 
94904.057703 70.881726 70.761413 
96743.231532 21.521227 214.962392 
97520.938717 74.871399 240.0726 
97589.910552 94.895993 139.525149 
96797.194498 200.94744 178.533334 
96881.935334 54.408158 47.10599 
97702.972151 122.359861 14.805559 
97867.789601 164.201959 -137.230051 
96956.261903 300.244055 -79.474572 
96851.697794 245.000521 59.83402 
95923.186878 152.717337 58.00073 
95903.603074 130.558458 152.595071 
96785.417099 26.768173 144.880807 
94955.732987 -73.494939 -76.626041 
96183.536826 -13.186694 -133.099818 
96445.907724 -22.501371 -216.79884 
95027.112842 165.422794 -123.21351 
97223.515766 69.410099 -218.655354 
98090.322097 192.244199 -320.161241 
98383.714234 234.536259 -542.895361 
97331.021263 433.377828 -441.544287 
97892.193962 115.630844 -583.010364 
98759.797845 294.382961 -810.645045 
99232.409128 367.514752 -1136.270678 
98050.180513 643.255816 -1000.5432 
97638.944927 526.66854 -693.861331 
96552.676092 336.463027 -487.275506 
96266.946166 270.539851 -287.643941 
97509.218984 91.800593 -383.706227 
97111.799461 362.235786 -236.949794 
96090.534994 223.200137 -122.590724 
96021.905607 193.279511 -22.749125 
97025.300735 69.784055 -78.968213 
94906.733071 119.610925 2.662901 
94859.314126 -15.379162 -118.947619 
93552.984013 140.273668 -7.979849 
93518.941668 104.40534 74.800322 
94959.499188 61.623167 -35.389101 
94805.553268 -41.530411 240.125636 
93566.52521 20.226505 123.404449 
93698.456996 -8.162385 -45.293983 
94802.577099 -72.092274 -139.562849 
95979.144772 50.562037 58.703944 
96018.213014 -31.787122 -58.128883 
94966.415998 77.169997 126.137615 
96787.859592 164.508841 274.147673 
95938.330692 108.118904 229.295376 
96006.785118 89.147747 292.407003 
96742.539798 13.439604 272.172628 
94986.553918 73.244254 137.043897 
94956.130884 -27.785962 149.097945 
93865.954853 57.452616 1.330496 
94079.285618 68.968509 56.731652 
95075.588704 -47.11359 108.36434 
95265.344082 58.747447 244.790251 
95232.724037 -49.627795 77.091512 
94324.248288 69.200704 98.015864 
95973.098116 -23.323614 221.427633 
95899.965921 -19.938034 209.97642 
95109.844128 67.387455 196.987263 
96454.11373 -259.210697 28.837449 
97948.805361 -63.977429 -660.68096 
98895.505649 189.144449 -1026.242468 
97123.414394 359.434305 -1084.531341 
99016.794303 183.89109 -1147.331317 
99815.82852 459.208665 -1536.664432 
100528.519867 602.794567 -2028.555972 
99262.299937 981.402309 -1842.896049 
100796.920797 368.585089 -2062.400907 
101386.538578 770.78153 -2633.092186 
102414.594425 971.910624 -3397.309364 
101139.790267 1533.849242 -3082.819793 
100095.850654 1225.126028 -2397.908258 
99071.489337 793.039726 -1830.374512 
98210.401688 644.24692 -1440.667501 
99815.907652 313.021058 -1549.122028 
101738.158102 -181.797428 -802.69428 
102926.728528 110.264756 -2321.826907 
105173.464447 134.095396 -3101.689146 
102086.503536 984.739543 -2722.262238 
103459.378905 642.336037 -3507.056501 
103618.040139 1292.678404 -4359.556574 
105011.484149 1754.74278 -5587.919512 
104031.697703 2561.65726 -5119.589745 
107378.984131 1325.260319 -6111.196483 
106572.696274 2460.476688 -7176.271199 
108232.742259 3595.688244 -9236.181669 
108396.558454 4715.786419 -8567.22519 
106010.827546 3431.952144 -6607.279193 
105858.631931 2426.474367 -5519.025625 
103412.941755 1739.735478 -4127.147599 
105249.871979 892.362069 -4604.230545 
102423.301802 1956.337054 -3977.118539 
101512.875197 1286.424554 -3115.711532 
100070.247343 972.455872 -2369.599874 
101990.544765 478.389621 -2696.287459 
99985.901947 689.057785 -1924.85649 
99770.360678 -67.465225 -727.149071 
99717.870938 539.530471 -991.052044 
97596.020561 351.542331 -578.700863 
97406.835737 293.19024 -946.202334 
95113.643421 -22.741837 -100.08473 
96121.546723 198.209797 -287.255534 
97441.074311 95.101006 -743.020823 
98383.317246 112.243192 -719.752072 
99858.385481 105.664213 -1390.447015 
101183.865612 116.993449 -1782.037817 
98448.65123 464.721803 -1363.288708 
118837.136262 -77.221637 -4414.368075 
115752.355573 1636.723863 -9219.697656 
119689.454144 4972.034717 -14507.064709 
124647.523153 7139.195571 -12997.988103 
112372.741548 3744.336905 -11204.741813 
109826.64345 5503.783161 -11875.459489 
111055.392984 8827.983069 -15083.99007 
114190.306797 9680.505605 -14490.39947 
115857.466263 12658.931365 -19906.193095 
111477.472161 13940.184068 -18596.98176 
110686.926837 22796.047631 -21372.23456 
118283.580208 20467.05365 -22710.110779 
116678.702897 14083.165906 -18377.274947 
122215.342291 13569.225482 -19219.224462 
118162.025483 8569.150666 -14297.930068 
114590.906653 7239.374241 -15213.275988 
115921.87236 28190.652614 -23562.67527 
113597.291416 34079.187425 -24414.072041 
115199.05022 26964.517508 -24084.674966 
126653.634842 22423.965302 -26115.223692 
115432.20305 28180.54448 -23734.969955 
122941.023388 36882.307016 -27771.895253 
145288.784621 43586.635386 -33588.660849 
128774.44332 12976.291638 -19278.66411 
131411.016665 3279.960298 -8845.439129 
184290.722068 24606.02508 -31592.436602 
131558.653068 3523.180214 -8955.261008 
139427.570818 -1856.295028 -14684.018093 
123259.396911 10414.813679 -20877.559223 
130912.643787 27418.294862 -24732.573216 
142042.289557 27620.215363 -30674.739094 
111183.76267 6669.405516 -11150.891152 
113117.510404 5358.791075 -10279.420811 
109037.508251 3522.419953 -7475.41031 
109811.439159 2125.057323 -8223.591291 
115109.976525 3769.854557 -8390.153972 
113441.709235 -567.152018 -2052.182491 
116002.982417 2067.698961 -4599.632799 
107676.302098 1262.324428 -2644.512808 
105001.724791 1457.313745 -3868.031503 
102832.047076 804.749506 -1603.886546 
104467.023271 -299.717548 -956.788432 
108274.729747 -427.229117 -1274.896432 
108032.480467 220.767849 -4270.929173 
111603.743863 524.465611 -6133.074454 
109124.723728 2252.858239 -5603.941311 
98580.739736 789.218571 -1375.906479 
97474.876155 504.799674 -1041.881275 
96947.892661 412.215049 -737.315448 
98387.913677 148.96898 -831.517302 
96140.494569 284.547726 -715.445743 
96005.22177 -44.96166 48.488415 
94409.982112 96.0186 -358.589634 
93964.926889 180.470058 -236.172638 
95255.939007 207.455445 -280.745399 
93690.833313 166.015176 -107.898681 
95509.717537 -99.923978 -4.974814 
95164.199374 -97.688143 -42.318019 
96816.033749 -24.666536 -320.439799 
97312.481052 -19.225164 -455.294059 
95617.675251 250.788647 -478.047406 
97525.062281 8.498699 564.537836 
96990.548448 10.477596 441.680125 
97168.940588 5.210965 444.877173 
97518.442354 -13.508817 442.661649 
96409.731457 15.584371 282.726138 
96041.966575 29.836567 106.886579 
95741.604468 21.475469 88.761674 
96401.451382 -14.731835 129.861869 
96863.953757 14.173468 300.366208 
96850.238671 -27.82463 84.553829 
96336.50186 31.589745 119.415843 
97162.030543 -17.839788 284.136236 
96623.550737 -25.576547 104.337381 
96982.941838 -15.216912 295.30661 
96636.162649 16.191428 293.712814 
100663.09101 -251.271652 9.580199 
100869.121227 -299.692885 29.103672 
100969.382467 -331.600838 50.866098 
101069.986641 -383.541305 71.538675 
100947.202966 -410.76536 48.646369 
101058.645616 -423.481152 10.405336 
101269.755654 -474.629091 29.346492 
101172.145219 -423.42449 94.509284 
101269.472971 -475.619536 73.791436 
101272.745729 -468.920494 119.208836 
101147.190076 -506.66425 94.474185 
101147.521574 -513.489559 50.468267 
101046.642009 -461.356297 71.417011 
101120.028133 -455.705048 34.749819 
101169.344201 -434.997638 48.691914 
101451.711514 -595.171041 9.701275 
101642.324694 -642.359033 26.012996 
101372.537305 -512.4471 141.73729 
101466.905909 -556.422419 114.527374 
101472.2596 -554.292225 161.84298 
101349.110867 -590.568945 137.36491 
101558.368523 -595.409043 86.861919 
101643.445166 -643.242413 65.621094 
101649.203186 -636.686788 106.148192 
101535.702542 -670.623811 83.897685 
101570.187924 -594.651553 179.635189 
101656.060753 -635.477029 150.496303 
101665.576195 -633.243841 194.64925 
101548.465368 -667.04498 171.793278 
101541.314468 -669.073784 127.840902 
101449.641175 -629.683317 156.004598 
101444.748364 -630.257666 110.508942 
101563.241631 -596.072547 133.329142 
101533.781383 -676.982202 44.903555 
101441.732269 -630.459331 65.484975 
101507.352977 -625.517796 31.875783 
101553.902504 -606.191667 44.61474 
101345.864831 -593.324164 89.501893 
101248.556669 -549.521311 116.903254 
101248.929861 -544.065027 72.579811 
101369.783037 -513.234965 93.090276 
101342.098234 -533.243513 8.711908 
101395.965221 -563.45635 33.133117 
101174.041461 -488.529883 8.600173 
101248.568065 -545.273108 29.240472 
101367.708735 -507.133045 49.812097 
101463.503911 -558.002481 67.846122 
101346.740422 -583.648072 46.260928 
100943.215974 -358.622361 8.989927 
101000.648731 -389.073571 34.87722 
100773.851822 -313.826379 8.428472 
100847.872219 -370.615547 29.65799 
101758.556145 -669.451618 206.14999 
101833.932487 -707.042504 174.743441 
101848.589769 -703.067182 214.02359 
101739.181702 -734.033832 193.028069 
101903.592262 -742.755767 144.787871 
101967.075375 -776.250776 116.847418 
101980.455425 -772.59515 151.063608 
101886.494445 -799.734827 132.712439 
101935.045273 -733.771826 218.110979 
101997.268386 -767.649997 184.891659 
102017.469818 -761.245261 218.202672 
101918.495982 -788.935923 199.402795 
101900.821108 -795.073689 166.307757 
101830.5685 -763.138206 198.184531 
101815.617128 -768.093819 161.932993 
101917.678173 -738.885253 181.70944 
102024.508605 -807.364907 91.053712 
102076.32246 -836.298256 67.889692 
102087.355795 -832.617352 95.933651 
102010.15776 -855.289486 80.627882 
102122.501799 -860.001256 47.024432 
102161.050578 -886.016106 31.828196 
102169.03979 -881.179831 51.742428 
102110.6712 -898.63633 40.288842 
102144.750853 -854.559081 97.236605 
102180.626373 -877.95723 73.332927 
102196.351159 -873.065141 94.767237 
102133.70104 -891.367266 82.407434 
102120.392409 -895.613982 61.424669 
102074.639213 -875.002245 83.448345 
102063.80827 -877.962229 59.199615 
102131.59348 -858.4362 72.249562 
102095.458337 -785.235361 214.165477 
102142.749509 -814.98854 179.201727 
102168.570142 -805.537396 205.954012 
102082.074643 -829.847674 189.457939 
102182.944667 -842.155718 146.346124 
102216.068614 -866.527946 115.950783 
102239.716166 -858.121923 136.787843 
102172.298332 -877.643088 123.586767 
102236.37238 -821.973329 193.566373 
102267.213452 -847.535404 157.183494 
102298.464148 -834.402437 177.039388 
102226.333883 -855.434978 162.827493 
102197.429221 -867.762244 143.506754 
102156.84577 -844.618634 178.223297 
102130.684437 -855.205442 155.330659 
102207.800202 -833.192357 170.241119 
102151.025584 -885.419612 103.179715 
102108.22071 -863.61255 131.82256 
102089.512723 -870.146446 107.810549 
102161.896369 -849.187038 121.981737 
102058.709977 -838.813807 163.050981 
102002.473253 -811.233782 196.513167 
101981.95073 -818.708859 166.699844 
102072.430284 -793.079486 184.075227 
102022.725131 -851.237141 108.514377 
101964.887984 -824.482963 136.326584 
101951.298872 -828.827953 105.52018 
102036.931529 -803.872202 122.373083 
102052.914906 -799.207937 153.432178 
102102.086622 -828.234306 124.070863 
102120.566981 -822.458895 151.871758 
102038.922057 -845.851615 136.03383 
102194.285663 -900.020745 18.277609 
102224.583438 -918.051704 20.710017 
102188.112162 -925.886349 14.010958 
102218.542031 -928.626677 2.545269 
102255.445597 -939.682136 3.873357 
102249.544928 -928.220155 20.320163 
102258.902145 -939.648515 10.385591 
102266.91109 -936.358421 17.117644 
102244.786896 -943.109803 12.695926 
102238.977321 -945.238669 6.972208 
102218.759162 -937.339334 14.779312 
102230.682331 -936.934858 7.197097 
102243.812841 -931.886275 10.112848 
102259.228058 -946.078338 -0.514621 
102232.064889 -941.777423 -5.021805 
102278.163297 -940.401205 9.826001 
102270.393274 -944.809601 -0.895013 
102282.858146 -940.735869 -1.169661 
102277.545888 -942.566178 -2.384812 
102256.255799 -945.482422 -7.837693 
102235.733362 -941.41677 -11.879013 
102243.178204 -940.003021 -18.777496 
102258.943426 -935.506502 -15.820818 
102280.860379 -937.35315 -15.890061 
102255.539295 -935.996536 -26.575566 
102272.172121 -930.323027 -34.270692 
102283.814966 -927.476531 -32.306678 
102269.213142 -932.203214 -24.002074 
102284.035856 -936.80892 -15.495082 
102271.541555 -940.949138 -10.92651 
102266.247562 -942.274353 -11.823193 
102252.814031 -935.60394 -8.275356 
102263.052052 -943.393346 -6.559945 
102252.963797 -944.703264 -3.259965 
102251.13208 -945.84666 -4.411086 
102267.491184 -945.609802 -1.445029 
102264.413146 -944.582609 7.029363 
102256.774692 -946.636885 4.587451 
102267.806501 -943.773816 6.491076 
102260.078413 -945.685575 0.477871 
102259.035506 -947.969927 -0.232154 
102242.706846 -941.188467 1.231787 
102253.235474 -946.925681 2.10869 
102261.74263 -944.567296 3.284174 
102261.982901 -947.194464 -0.478027 
102262.147163 -947.075534 -0.404643 
102354.467242 -842.728669 156.456704 
102367.75788 -864.249739 118.993069 
102404.020917 -846.899597 131.946458 
102347.795958 -864.966284 119.865948 
102373.390511 -882.661343 84.163816 
102371.536114 -897.785757 52.248048 
102404.743526 -882.917078 58.961236 
102369.609837 -895.263588 50.778641 
102446.784921 -846.905442 103.675044 
102441.766883 -864.75569 65.504148 
102482.440787 -842.779726 71.843354 
102443.348657 -858.359655 61.634242 
102404.609298 -878.602259 56.377241 
102398.992775 -863.660069 92.568445 
102362.487655 -881.817156 83.899785 
102408.2317 -866.527583 94.082523 
102362.374713 -909.469802 23.493402 
102346.096468 -917.588561 -1.88397 
102375.485304 -905.323168 -2.004018 
102361.797742 -911.393041 -5.94719 
102322.901442 -922.046939 -23.700433 
102293.01006 -922.77924 -41.810772 
102317.993597 -913.096714 -49.153707 
102325.74617 -912.564041 -48.662195 
102381.42343 -897.445534 -30.919881 
102347.029231 -900.947004 -56.24859 
102380.006456 -885.936774 -63.044077 
102384.096005 -888.536943 -64.512213 
102352.917682 -901.860856 -56.665738 
102376.564261 -901.726643 -33.594548 
102347.2098 -913.877443 -29.138296 
102350.150857 -911.083664 -27.397959 
102510.690536 -834.599269 36.683821 
102486.913153 -849.316394 -1.826845 
102531.254999 -822.483167 -1.543109 
102510.21681 -836.178355 -10.221311 
102455.51553 -860.368187 -37.303684 
102416.792629 -867.608365 -69.484652 
102457.230624 -845.437522 -75.509623 
102457.94388 -852.273685 -79.592448 
102543.871872 -806.591235 -42.552639 
102501.135875 -818.830694 -81.052265 
102548.293156 -787.122002 -86.039091 
102545.96782 -799.604742 -93.574829 
102500.284255 -828.293338 -86.744562 
102532.121751 -819.593992 -50.609442 
102487.845846 -846.207416 -46.511779 
102498.009914 -835.874474 -40.090901 
102419.15506 -872.170172 -72.167251 
102447.035648 -868.38293 -42.297274 
102409.88634 -886.714472 -37.985796 
102416.594682 -880.704767 -34.233677 
102467.576212 -860.674325 -9.065953 
102480.527945 -849.155864 27.286542 
102439.737729 -871.519538 25.314427 
102468.082266 -858.987478 33.457512 
102393.200177 -897.754276 -6.935366 
102402.615053 -890.011989 23.127358 
102369.323678 -905.160542 20.755452 
102393.757462 -895.896662 26.852239 
102429.04438 -879.233264 30.176692 
102408.848421 -890.174203 -2.043205 
102446.046204 -871.681074 -1.9887 
102428.510617 -881.012475 -7.972789 
102302.684227 -921.00655 -40.533101 
102321.940243 -923.560863 -24.629476 
102300.852169 -931.108849 -20.078384 
102299.777343 -930.700045 -19.857007 
102334.431498 -922.356737 -5.001788 
102340.001951 -917.425734 18.226571 
102314.765202 -927.203617 15.566697 
102335.0247 -920.379465 20.108022 
102292.215765 -937.662059 -3.217746 
102293.709914 -934.826345 12.801586 
102276.902249 -940.560244 9.948592 
102292.832754 -935.590774 13.279453 
102311.813946 -928.989234 16.70281 
102299.687916 -934.990941 -1.450206 
102320.798733 -927.366634 -1.695358 
102311.208302 -931.009867 -4.092609 
102338.496797 -908.835523 44.889431 
102329.770907 -896.683177 74.788333 
102300.970175 -908.713607 65.302645 
102342.410673 -895.789282 73.971718 
102313.68925 -881.095632 107.692376 
102290.116561 -862.227728 143.336968 
102258.55183 -876.407476 127.600972 
102320.645006 -857.909777 140.070206 
102257.013829 -904.76042 81.872739 
102230.79326 -887.864907 111.295541 
102206.933353 -896.978947 94.520532 
102264.40618 -880.119145 105.905143 
102290.587452 -870.238816 123.191139 
102306.616695 -889.891879 91.888732 
102335.245956 -878.433015 105.617305 
102283.392773 -894.221084 95.000034 
102255.152427 -939.732611 19.388171 
102239.057688 -931.382947 35.22005 
102226.932975 -935.147513 25.026383 
102259.427013 -925.676691 31.345543 
102216.313433 -919.457682 54.594738 
102187.050147 -904.065503 77.373088 
102171.199341 -909.380869 59.941507 
102223.996446 -893.842208 70.426394 
102192.522366 -927.678225 26.581598 
102159.394359 -913.228114 42.349865 
102152.825462 -913.314243 26.514768 
102200.189217 -901.304847 34.473735 
102209.90902 -898.196601 52.39228 
102232.813585 -915.604781 34.813463 
102245.04014 -911.475122 49.176816 
102202.133972 -924.237084 40.580079 
102242.188628 -887.895268 88.291539 
102261.426588 -906.094731 63.608741 
102281.979878 -899.006324 77.868479 
102234.636329 -913.070125 68.385266 
102273.823374 -921.021487 42.191517 
102279.322237 -932.495381 24.256303 
102296.093087 -926.881742 31.371021 
102269.634272 -934.955188 25.944488 
102315.418747 -906.32975 63.552549 
102317.104623 -919.405668 38.426436 
102342.284375 -909.817687 45.394188 
102311.394084 -919.744689 38.75646 
102288.407455 -928.354072 32.424028 
102276.191557 -918.300579 55.50452 
102255.521929 -925.775972 45.449192 
102292.523258 -914.638821 52.946403 
102184.835345 -908.991385 3.088865 
102200.852101 -920.376048 10.153432 
102117.129474 -891.22597 3.750881 
102149.634333 -913.883493 10.852973 
102105.666326 -902.60231 21.737501 
102056.597435 -879.557787 35.017796 
102089.678981 -877.40572 17.114827 
102116.668319 -866.560665 23.910774 
102001.654323 -858.78758 52.656053 
101941.202368 -832.032054 74.475776 
101936.323588 -829.945217 46.397209 
102016.158771 -809.72966 59.852379 
101994.508864 -822.681167 5.480783 
102026.213784 -842.421346 19.766647 
101881.975137 -792.980435 5.940901 
101933.686536 -830.81136 18.902209 
102011.007126 -806.459169 31.939345 
102068.933391 -838.666025 40.28872 
101998.723847 -853.893006 27.434187 
101875.568849 -802.983911 98.833868 
101803.772199 -771.69979 125.237028 
101795.263654 -773.429393 88.751271 
101892.871859 -745.418881 107.510916 
101726.79527 -737.923654 153.848574 
101644.986317 -701.874709 184.191036 
101635.252375 -704.837692 142.47333 
101746.424378 -672.486456 164.32833 
101710.824344 -744.145668 74.549567 
101628.020998 -707.225564 100.537738 
101625.435035 -703.196683 62.482177 
101730.961408 -676.447681 80.334857 
101736.965232 -674.809538 122.256925 
101813.386794 -713.067993 95.647688 
101822.260915 -710.086473 135.062183 
101717.154264 -740.90692 114.26101 
101704.833347 -693.570506 7.491019 
101749.769488 -719.763745 27.75014 
101557.328001 -654.446531 7.719126 
101623.770115 -704.159264 25.262369 
101726.908126 -671.411431 42.918808 
101807.589807 -715.043983 56.684725 
101709.503419 -736.375513 38.622529 
101796.595328 -745.710848 7.926275 
101947.834246 -783.74277 20.12216 
101885.462227 -745.787588 70.006251 
101950.007427 -784.471984 50.991571 
101957.242068 -778.596647 82.473419 
101867.374802 -805.419454 64.878392 
101863.629201 -810.705767 34.815865 
101789.746692 -774.402695 52.64125 
101841.393047 -770.681616 25.624188 
101879.909891 -754.901553 35.838795 
102060.137837 -860.083305 5.421484 
102158.121504 -885.713456 12.519576 
102544.281946 -764.310206 -131.679126 
102482.576581 -774.784853 -169.832613 
102531.608613 -738.423787 -179.134696 
102548.461302 -750.379019 -185.9283 
102413.757545 -780.856245 -204.528071 
102338.281433 -782.438514 -235.473261 
102382.382009 -753.516833 -251.248203 
102420.894848 -757.065233 -252.52046 
102510.046378 -709.760406 -228.055622 
102429.483372 -719.176574 -265.524527 
102479.366352 -678.643534 -278.081773 
102515.761601 -690.709665 -284.50791 
102466.930529 -726.700137 -269.203781 
102536.626801 -721.696495 -234.621737 
102488.191123 -756.069714 -221.041841 
102460.455412 -748.283859 -216.989678 
102256.640446 -779.498437 -262.410519 
102169.361218 -772.055568 -285.121932 
102207.544396 -749.907898 -307.788582 
102266.99364 -744.987791 -303.518585 
102077.003259 -760.181731 -303.434416 
101980.156634 -744.000149 -317.224127 
102011.621205 -727.776735 -346.7911 
102090.63572 -714.740194 -337.220384 
102149.899529 -718.139231 -354.139973 
102046.096351 -708.11809 -374.817876 
102083.510101 -684.47558 -401.048525 
102161.935518 -678.019268 -395.436106 
102124.807544 -698.12813 -367.080492 
102218.798025 -712.3958 -349.166519 
102181.358754 -732.063783 -322.609997 
102111.912619 -741.111215 -329.576545 
102439.332085 -645.418146 -328.844731 
102340.080429 -654.410702 -365.248815 
102389.693638 -610.446077 -379.968863 
102446.010378 -623.157167 -386.339317 
102234.662742 -658.005149 -397.48572 
102123.774663 -656.236237 -425.196685 
102166.78371 -622.719112 -446.942581 
102244.558382 -625.019683 -446.594855 
102330.181245 -574.101083 -431.071723 
102212.40933 -583.171297 -465.930065 
102260.498604 -536.763641 -481.763699 
102337.262573 -550.496656 -488.292807 
102289.744472 -590.819768 -468.798465 
102396.641157 -587.287681 -437.502034 
102348.333656 -626.899945 -418.659184 
102281.162776 -619.425421 -415.66937 
102201.899753 -653.856703 -422.035192 
102302.454232 -660.463467 -397.454257 
102259.215006 -688.734183 -374.197383 
102190.858329 -690.661449 -376.8708 
102397.23116 -661.793973 -368.406423 
102485.634813 -657.748664 -335.20938 
102436.685489 -695.169517 -318.454396 
102389.436704 -687.775492 -315.07046 
102307.51457 -721.997939 -326.742082 
102390.399035 -726.793413 -300.006034 
102347.006273 -753.355713 -280.091191 
102297.895926 -754.060083 -281.604033 
102342.22131 -723.724966 -299.236152 
102248.824125 -723.370452 -328.868248 
102293.058548 -691.782412 -348.11344 
102350.991286 -694.49171 -348.451374 
101879.437659 -723.683936 -326.41987 
101775.484494 -699.453016 -331.007356 
101799.696263 -688.189646 -367.062596 
101896.21004 -667.776001 -352.680307 
101668.956906 -671.570766 -331.034862 
101560.535292 -640.343639 -326.614263 
101577.299205 -633.036501 -368.329821 
101688.52871 -606.331418 -349.848689 
101712.440594 -651.054762 -407.777993 
101596.296542 -623.885513 -408.877839 
101617.558574 -612.548109 -448.032095 
101730.712404 -590.148728 -432.089741 
101708.424913 -599.150677 -391.55802 
101817.279816 -629.577802 -392.573315 
101793.711691 -638.695693 -353.515588 
101689.446862 -662.410847 -370.049434 
101450.903396 -606.120293 -317.914002 
101340.731965 -569.27878 -305.164876 
101350.257175 -564.941394 -351.339064 
101472.74467 -533.316056 -329.657975 
101230.717109 -530.213 -288.690918 
101121.617645 -489.359926 -268.894425 
101124.544687 -487.11759 -317.950175 
101254.126365 -452.182123 -294.126986 
101244.095891 -522.856956 -383.586576 
101128.131279 -484.112553 -366.364011 
101132.450268 -480.167837 -413.97481 
101266.706701 -447.48759 -391.399902 
101259.903347 -450.187186 -343.097747 
101372.562248 -490.591151 -361.388725 
101363.458178 -493.524744 -313.635175 
101236.852197 -527.024352 -336.531436 
101514.922588 -572.9426 -487.252417 
101388.314312 -543.473371 -483.577562 
101404.389658 -532.513557 -524.825842 
101534.19544 -508.699759 -507.665696 
101262.22378 -510.684053 -474.628119 
101137.587979 -475.073436 -460.601846 
101143.644105 -468.586318 -506.038568 
101283.658267 -439.235765 -485.332143 
101285.800477 -491.537231 -560.095247 
101150.73202 -460.429352 -550.047587 
101158.97928 -450.289314 -592.356108 
101305.564269 -425.657926 -574.333177 
101293.951056 -433.242163 -530.567054 
101423.972397 -467.237762 -542.458138 
101408.763384 -475.309799 -499.090993 
101273.281604 -502.140335 -518.185882 
101274.602057 -443.90574 -438.87256 
101395.16411 -481.712112 -454.305773 
101383.115013 -486.724199 -408.337217 
101252.525616 -517.493875 -429.685201 
101516.042286 -517.174932 -464.973875 
101636.393995 -549.763371 -470.657803 
101615.897137 -558.550198 -428.912836 
101495.950374 -584.147972 -446.923648 
101485.351411 -529.211761 -375.760852 
101597.544391 -565.55255 -385.898054 
101581.318223 -571.067203 -341.826257 
101463.989664 -600.417583 -362.028826 
101478.990065 -593.192802 -405.102525 
101361.320496 -559.372591 -396.598164 
101373.983305 -552.314794 -440.751027 
101499.773173 -523.915775 -420.930962 
102180.315906 -498.815566 -531.646817 
102044.14757 -508.275848 -564.297316 
102089.262633 -460.634481 -580.3126 
102187.290969 -475.565355 -587.087701 
101903.346501 -511.123889 -591.451306 
101758.96399 -507.608535 -612.675907 
101794.463439 -473.105368 -636.772894 
101914.079009 -475.348863 -635.461838 
101986.920259 -422.588216 -627.338868 
101832.413193 -432.51824 -656.835312 
101872.814928 -385.029196 -672.285379 
101993.366074 -401.102167 -679.245093 
101952.651508 -441.236787 -659.392584 
102096.019282 -438.11232 -634.22381 
102052.996632 -478.778974 -614.166993 
101943.921889 -470.335516 -611.526756 
101612.11152 -498.06589 -627.620415 
101463.950346 -482.913466 -636.02402 
101487.904301 -459.226324 -667.666624 
101626.454305 -450.256607 -659.212165 
101315.680298 -462.643316 -637.722157 
101168.528053 -437.814341 -632.651393 
101179.535412 -422.610935 -670.576149 
101333.129953 -404.4778 -656.293632 
101352.887858 -420.52384 -704.56618 
101192.173581 -404.240578 -705.723816 
101206.630254 -382.215981 -737.633654 
101367.19552 -372.831636 -728.441736 
101349.292591 -390.167609 -693.797332 
101502.273107 -411.330305 -695.736925 
101479.930584 -429.646007 -661.153199 
101333.297475 -443.484662 -672.70635 
101746.410265 -348.288893 -714.688164 
101573.567007 -358.508577 -739.674111 
101607.100463 -312.672435 -754.052437 
101752.020505 -329.588095 -760.97626 
101398.614178 -360.881006 -756.859274 
101223.109001 -355.996874 -765.785501 
101241.829645 -324.98522 -789.594114 
101408.729282 -327.163992 -787.194273 
101454.203831 -278.453467 -789.843901 
101263.028324 -288.51971 -808.403074 
101286.957046 -245.869393 -821.478326 
101458.810321 -263.0985 -827.992006 
101432.630432 -297.740853 -810.165519 
101612.220708 -295.604952 -796.618289 
101581.484867 -332.11571 -778.166468 
101425.08673 -322.886528 -776.105999 
101386.96373 -352.003039 -759.752452 
101552.968547 -363.13936 -754.785725 
101526.591866 -389.343108 -727.11801 
101374.605495 -393.197154 -732.803702 
101717.391328 -367.643238 -741.957122 
101878.872982 -364.835681 -721.667453 
101840.938587 -404.10026 -702.170903 
101709.141322 -395.143257 -699.727339 
101654.634668 -427.315925 -690.501074 
101805.152355 -437.475651 -678.28556 
101771.542908 -465.678807 -650.578585 
101642.049934 -469.265038 -655.604225 
101674.372993 -435.200759 -679.825693 
101514.083561 -431.037458 -695.853389 
101542.599724 -397.702103 -720.053764 
101684.936913 -399.987692 -718.263395 
101318.590268 -416.182248 -616.349492 
101459.484091 -444.781805 -623.819905 
101440.856044 -457.180073 -584.137418 
101299.892444 -478.508326 -600.055108 
101600.360155 -469.37801 -624.879669 
101740.126104 -489.359282 -619.557652 
101710.90769 -509.104449 -585.675501 
101584.494108 -522.264833 -596.373 
101554.272034 -498.16216 -548.749685 
101683.885579 -525.444151 -549.33439 
101659.051768 -538.854855 -510.890432 
101535.96334 -559.191141 -525.81645 
101559.132879 -542.460104 -562.306638 
101422.292776 -519.057634 -564.208395 
101442.114055 -502.681924 -601.398129 
101576.313075 -485.192781 -587.932414 
101877.72233 -504.173112 -607.979057 
102012.131632 -513.334317 -590.360922 
101973.537138 -542.526177 -563.289373 
101865.240006 -545.780858 -567.645559 
102142.38822 -516.432632 -567.006255 
102267.585856 -513.13947 -538.296903 
102221.194572 -553.887157 -518.395688 
102133.516953 -546.003524 -515.615957 
102059.314019 -580.453827 -517.060444 
102177.05696 -588.474945 -495.435054 
102135.346533 -617.663335 -469.811796 
102047.328569 -620.405326 -473.41028 
102089.146815 -586.255786 -496.056657 
101961.250234 -583.482524 -521.0539 
102001.447616 -548.947702 -544.381953 
102099.680552 -551.143327 -543.517014 
101755.388364 -578.982838 -471.216974 
101872.211299 -604.380575 -466.588114 
101843.455695 -618.270177 -430.343482 
101737.949777 -637.111463 -443.98273 
101986.072226 -625.551062 -456.7823 
102096.210329 -642.141485 -441.881618 
102059.772303 -662.531583 -411.962273 
101971.73187 -673.352248 -420.404875 
101923.409516 -656.441859 -388.844323 
102026.136367 -679.392863 -380.336732 
101995.389097 -693.225274 -347.256337 
101907.322467 -710.065356 -359.308498 
101938.100934 -693.452897 -390.721405 
101826.632861 -674.346292 -401.728035 
101856.281118 -657.481178 -434.756293 
101953.382247 -642.515187 -423.627136 
102008.162992 -649.209036 -448.07417 
101888.621008 -637.09689 -465.868652 
101923.62385 -612.637022 -494.751709 
102021.410746 -605.049857 -488.031344 
101765.982967 -620.138527 -478.394772 
101641.117891 -598.634445 -485.536679 
101667.007373 -581.704837 -521.10195 
101782.445063 -565.264875 -508.681887 
101829.633169 -575.058632 -540.588843 
101695.259018 -561.26669 -554.400574 
101725.902584 -536.771014 -585.063511 
101843.638099 -528.375532 -577.41554 
101811.86875 -548.55842 -544.191844 
101937.30518 -567.032589 -533.385839 
101903.510097 -587.466593 -501.037325 
101796.544539 -599.639125 -510.710694 
101014.093695 -447.219503 -246.153127 
100908.637049 -404.26123 -220.896273 
100906.09483 -403.300602 -271.061935 
101038.222513 -366.790117 -246.2381 
100805.943411 -360.880353 -193.836797 
100707.189408 -317.639765 -165.803658 
100700.729918 -317.408246 -214.848639 
100829.827283 -281.270644 -190.325141 
100795.695956 -359.57208 -293.399304 
100692.673865 -317.050805 -263.711257 
100683.10189 -316.441453 -312.305179 
100819.241813 -281.085924 -288.08449 
100825.088344 -281.233963 -239.296458 
100930.045826 -323.463904 -268.767498 
100932.793702 -323.738923 -218.921631 
100801.351731 -360.355622 -243.791353 
100612.767903 -274.944117 -137.160611 
100522.527166 -232.729919 -108.820579 
100513.929131 -233.791733 -154.06644 
100635.322194 -199.698252 -130.930059 
100436.887802 -195.952582 -80.471267 
100359.744656 -151.982897 -58.709697 
100350.701467 -157.122949 -95.229736 
100457.726675 -127.022106 -75.399154 
100416.883963 -194.387368 -167.151954 
100338.66387 -156.931249 -135.295126 
100322.23647 -157.124457 -175.421098 
100436.95803 -127.488674 -155.114319 
100448.805751 -127.355702 -115.147434 
100535.350282 -162.381402 -145.37669 
100543.445632 -163.00522 -102.766543 
100428.671373 -194.362325 -123.831963 
100568.472354 -274.282336 -326.897956 
100471.638972 -233.772419 -291.028569 
100452.049576 -233.464202 -336.299334 
100590.567378 -200.632255 -313.538846 
100382.39477 -194.576911 -253.653524 
100301.559001 -157.321863 -215.579161 
100276.729256 -157.460901 -255.725848 
100402.336953 -128.103187 -235.335025 
100334.110658 -194.387378 -339.57686 
100247.830486 -157.52555 -295.802348 
100214.934676 -157.475101 -335.737208 
100353.807573 -128.731016 -315.419582 
100379.759913 -128.422564 -275.423802 
100473.071331 -163.391683 -317.907458 
100492.821316 -163.164607 -274.939105 
100359.920134 -194.555133 -296.710609 
100421.442641 -127.788676 -195.209961 
100509.838087 -162.887122 -231.824311 
100524.047756 -162.585473 -188.602039 
100401.426597 -194.506863 -210.459133 
100604.941805 -200.512762 -268.127447 
100706.031765 -240.00854 -303.294291 
100715.781757 -240.024485 -255.961381 
100582.673482 -274.740509 -279.731309 
100627.351442 -200.0848 -176.762632 
100723.964867 -239.959318 -208.443138 
100730.542082 -239.799521 -160.802527 
100604.851172 -275.094066 -184.738818 
100594.809038 -274.991394 -232.310538 
100502.643459 -233.933004 -199.830303 
100488.531782 -233.907914 -245.520292 
100617.210718 -200.318129 -222.524403 
100286.91005 -127.08014 -36.507592 
100216.840442 -89.346953 -45.483838 
100300.670596 -73.214023 -30.985864 
100227.890646 -66.904831 -5.501216 
100114.436146 -38.793288 -12.610558 
100151.697066 -64.364066 -50.678864 
100109.408559 -36.951839 -31.839568 
100095.900995 -39.895904 -51.916288 
100164.275813 -23.559546 -40.87978 
100172.641184 -21.050247 -22.10695 
100230.49741 -43.790914 -38.320602 
100193.516708 -47.003883 -19.366061 
100160.761126 -58.872636 -25.396659 
100058.562228 -3.322986 -0.012299 
100047.99413 -21.232685 -45.540011 
100033.685929 -7.470974 -23.184708 
100007.593946 -8.139471 -32.416179 
100053.199153 -3.433511 -26.780156 
100029.766002 0.157958 -6.856623 
100009.247237 -1.463551 -10.187305 
100005.738928 -0.091936 -10.057101 
100034.989841 -2.199445 -6.215497 
100071.080289 -3.684107 -17.399837 
100043.060121 -0.907373 -3.793909 
100051.156023 -1.424647 -2.41502 
100104.618808 -10.679339 -37.268824 
100116.906682 -12.055448 -23.408383 
100066.942993 -20.707963 -30.375804 
100086.277122 -16.348472 -2.361637 
100068.899033 -8.319039 -9.122707 
100160.126752 -33.70035 -3.171464 
100122.175987 -13.170759 -10.415853 
100078.016765 -23.916664 -15.790299 
100051.966072 -7.615223 -14.998186 
100081.64895 -5.216872 -9.28698 
100094.841238 -123.164445 -323.748539 
100023.928315 -91.826462 -270.153959 
99974.187084 -91.917126 -302.530448 
100111.080783 -69.032705 -285.755548 
99966.454239 -63.92854 -215.679964 
99923.571185 -40.1329 -161.574282 
99867.619296 -40.220866 -183.67342 
99977.991953 -25.401409 -171.537703 
99853.578643 -64.173507 -271.02529 
99804.152877 -40.354762 -205.906127 
99733.78578 -40.43456 -228.257603 
99865.09885 -25.777648 -216.098958 
99924.675945 -25.519142 -193.747007 
99988.248198 -45.037988 -256.428405 
100038.063737 -44.710938 -228.780356 
99913.110555 -64.085087 -243.33357 
99899.593973 -20.684496 -109.859675 
99902.828519 -6.308939 -64.230435 
99840.509591 -4.986558 -72.910114 
99901.194561 -8.386449 -62.668607 
99920.668223 -3.356281 -16.224335 
99790.150252 5.292713 -29.38215 
99768.399938 -8.570461 -20.466467 
99862.268239 3.87411 -24.945892 
99616.388082 -21.003216 -174.046616 
99885.377319 -11.132537 -18.797964 
99835.973875 -8.042591 -17.475682 
99598.801255 -5.777557 -101.111473 
99499.988767 -6.753389 -110.323722 
99621.299849 -5.335234 -103.728808 
99607.054031 5.040277 -36.026724 
99496.327915 3.774812 -38.290781 
99500.236465 -3.393039 -36.818271 
99599.605035 -6.631259 -30.20967 
99688.173545 -8.105696 -24.709177 
99705.081437 5.35009 -32.863723 
99703.812117 -6.085279 -92.186289 
99742.093134 -12.473273 -164.544342 
99812.664185 -12.431338 -147.837365 
99700.001798 -20.625027 -158.187707 
99845.284166 -6.976878 -71.385851 
99875.713588 -12.647759 -131.162847 
99931.663485 -12.532226 -115.109629 
99841.208569 -20.524805 -125.869943 
99775.178545 -20.303177 -142.125193 
99769.197507 -5.210779 -82.157718 
99689.608734 -5.072048 -91.83825 
99778.835077 -6.720182 -81.465678 
99941.772294 4.485938 -24.691078 
99976.449632 1.05643 -15.700068 
99953.222538 -5.384194 -56.945481 
99969.384084 -1.009546 -13.314179 
99980.728171 -11.567955 -99.702409 
100023.207221 -12.702772 -84.945285 
99948.747669 -21.855638 -92.848441 
100026.813721 -2.980695 -36.989827 
100056.80856 -11.293892 -69.187861 
100084.379795 -10.745889 -53.109556 
100020.633774 -21.750184 -61.416903 
99986.022635 -22.635477 -77.454648 
99971.877892 -9.367109 -41.949493 
99927.629066 -11.842807 -51.31693 
99993.143018 -3.314405 -47.504854 
100024.96219 -24.835511 -149.450762 
100082.375085 -44.333185 -201.191826 
100121.255165 -43.95159 -173.60703 
100013.417475 -63.759286 -188.030022 
100152.038197 -68.640816 -253.392096 
100233.044307 -97.109745 -305.055268 
100266.06319 -96.75006 -268.578003 
100135.696144 -123.127861 -287.294541 
100219.721534 -67.948836 -188.624931 
100295.049183 -96.394362 -232.049811 
100319.926134 -96.097874 -195.52037 
100203.248838 -122.847909 -214.150742 
100171.866096 -123.005017 -250.745248 
100106.956658 -91.506018 -205.254338 
100068.211645 -91.663982 -237.728996 
100188.288624 -68.262319 -220.995996 
100148.909937 -24.257019 -62.507063 
100203.833898 -43.555578 -91.672479 
100219.77424 -43.576261 -64.829289 
100137.103602 -63.316547 -78.292902 
100268.036481 -67.544585 -124.127024 
100340.618798 -95.85082 -159.053565 
100357.073089 -95.560795 -122.645254 
100251.561644 -122.476754 -141.118785 
100296.10663 -65.700067 -59.884968 
100369.348161 -95.015343 -86.368508 
100375.561088 -99.271606 -53.686099 
100279.586866 -121.78839 -68.71265 
100268.311441 -122.215568 -104.727239 
100205.870648 -89.879556 -76.642449 
100189.633933 -90.916499 -108.386859 
100284.836888 -66.958819 -91.918843 
100229.864517 -122.668049 -177.589731 
100167.811457 -91.237902 -140.55976 
100140.253354 -91.360979 -172.821758 
100246.320455 -67.815364 -156.347967 
100116.083273 -63.518151 -105.577221 
100075.372511 -40.062147 -73.697666 
100048.250804 -40.445436 -95.51493 
100127.746111 -24.714279 -84.278312 
100054.284453 -63.669525 -160.285121 
100014.268234 -40.440521 -116.868177 
99972.864358 -40.065277 -139.220639 
100065.919906 -24.81045 -127.490872 
100099.975386 -25.289243 -105.885453 
100154.465241 -43.988506 -146.162691 
100182.014257 -43.901876 -118.870327 
100088.39645 -63.694082 -132.828957 
101104.510397 -215.117145 -848.309233 
100895.126066 -224.353255 -857.793348 
100905.924407 -186.349698 -869.613554 
101108.091051 -203.181634 -875.215975 
100687.918238 -224.914701 -855.920449 
100485.113793 -217.892721 -842.355518 
100472.875567 -194.636932 -864.505999 
100696.636677 -195.853239 -860.266453 
100690.168367 -159.673595 -884.575174 
100463.016397 -167.242322 -881.413771 
100456.12148 -135.147904 -892.266239 
100692.835191 -150.784183 -896.384653 
100693.471968 -175.192198 -881.062722 
100909.026954 -176.007876 -889.508566 
100901.435853 -203.320629 -873.60863 
100687.570875 -194.86251 -873.286552 
100288.946903 -204.469109 -816.968186 
100101.626091 -185.894211 -779.836153 
100064.117743 -173.029177 -808.75273 
100301.257122 -163.435049 -797.734644 
99925.298187 -163.462152 -731.244334 
99761.987679 -138.481243 -671.678942 
99698.629348 -132.3424 -702.972805 
99939.221204 -117.052057 -688.462645 
99824.083359 -143.349551 -789.714484 
99633.851268 -124.773051 -732.000177 
99568.212324 -115.583572 -758.388303 
99835.036536 -106.839 -747.220247 
99887.366791 -112.540325 -719.036426 
100075.804726 -134.072566 -778.562721 
100115.010087 -141.280891 -748.755966 
99874.819654 -154.364124 -761.933739 
100202.577591 -112.785188 -891.626096 
99958.718934 -117.818536 -871.132582 
99928.254273 -92.555333 -881.437317 
100204.534624 -106.261747 -883.520055 
99724.323101 -114.499012 -834.455749 
99502.396347 -104.58469 -781.680451 
99437.193118 -91.548798 -801.275143 
99731.24991 -91.409616 -794.66156 
99631.806078 -74.392957 -860.29762 
99373.378117 -76.201664 -816.498888 
99311.826419 -58.207962 -826.58386 
99633.256019 -69.559855 -826.251915 
99681.144971 -81.396639 -812.779036 
99929.938315 -86.941861 -861.201051 
99963.481985 -101.941699 -847.295275 
99676.751966 -96.039991 -850.124009 
99782.784281 -99.825914 -772.600753 
99999.43612 -114.618136 -828.418001 
100037.090348 -125.250213 -805.296064 
99773.684591 -130.158206 -814.087853 
100225.558793 -124.454509 -869.185828 
100458.40497 -127.536272 -894.789351 
100468.523435 -148.88553 -879.988981 
100220.42943 -141.552386 -881.101473 
100274.513675 -152.7232 -825.599308 
100481.18481 -166.939455 -859.801854 
100495.852295 -182.097713 -834.975588 
100264.255707 -186.916426 -843.00746 
100241.21384 -166.094209 -864.623826 
100027.374749 -157.635525 -834.032436 
99992.012682 -139.362942 -855.061314 
100249.093444 -139.828863 -849.631969 
99613.714985 -112.225172 -601.739018 
99482.399675 -86.00231 -522.239113 
99393.841101 -83.761688 -551.26512 
99627.073413 -67.697565 -536.430541 
99370.239246 -61.018305 -434.286518 
99279.648487 -38.385216 -339.690604 
99168.377399 -37.791908 -361.00706 
99380.311671 -27.31175 -348.467888 
99164.324068 -58.323956 -485.473089 
99049.967259 -37.075388 -382.084914 
98925.740562 -36.294857 -402.887649 
99173.694038 -27.14246 -391.239487 
99279.536496 -27.115691 -369.974605 
99405.397025 -45.228178 -472.053013 
99494.548225 -45.512224 -446.345509 
99269.724566 -59.845456 -460.223052 
99220.144826 -18.007314 -242.3183 
99213.375928 -1.296016 -151.245868 
99071.463132 1.191092 -157.548901 
99216.059064 -16.505727 -139.518991 
99234.957416 -6.303655 -39.6582 
98929.292877 17.377315 -63.669085 
98916.979517 -21.429424 -40.761 
99057.314602 -19.40348 -35.386507 
99167.022902 -28.023568 -40.559733 
98680.9371 -17.427257 -302.779935 
99090.006583 12.478436 -59.496398 
98602.357983 0.461308 -179.712545 
98430.992684 -3.619234 -187.206709 
98684.599506 -9.881251 -185.537339 
98362.805438 12.828046 -64.054472 
98434.106025 -3.134892 -77.331332 
98599.798024 -16.345554 -60.047159 
98565.367051 17.019501 -65.308558 
98761.134044 -20.358486 -48.691722 
98754.483661 17.678121 -64.979494 
98828.764805 -11.812161 -171.295652 
98932.003088 -15.284385 -294.171777 
99056.699255 -15.511253 -277.490122 
98828.131522 -16.838499 -288.339684 
99098.191594 -13.498806 -147.881443 
99174.56938 -16.021078 -260.490399 
99286.040067 -15.795871 -244.3629 
99096.952376 -17.546385 -257.908127 
98967.376973 -16.654114 -273.528614 
98923.317094 1.121332 -165.120536 
98768.669492 1.630561 -173.125083 
98967.65624 -13.144574 -159.013792 
98966.900314 -43.884442 -778.437729 
98697.772291 -42.263742 -703.902667 
98595.651493 -31.304999 -713.73043 
98967.907633 -40.527664 -710.959555 
98450.87908 -34.670524 -607.912199 
98231.174941 -23.289074 -492.56848 
98080.823011 -19.249868 -505.572481 
98454.189203 -23.661541 -497.257708 
98197.208714 -20.195201 -629.999738 
97926.501297 -14.949454 -516.049341 
97771.098806 -10.220595 -524.416871 
98197.186737 -20.338547 -520.440133 
98325.75116 -22.040692 -509.938498 
98596.299736 -29.131883 -626.221957 
98700.646293 -32.695431 -614.704315 
98323.977077 -27.934491 -620.672835 
98055.708902 -7.089702 -363.480568 
97950.265615 11.991826 -232.891204 
97746.514303 16.185547 -238.100271 
98049.58715 -24.359741 -204.590961 
98080.573748 -41.398417 -49.736417 
97931.486464 -32.891708 -40.481607 
97441.423757 41.289018 -98.377912 
97323.207617 1.085457 -393.381559 
97690.799694 35.754715 -99.89816 
97724.917678 -42.436983 -48.380063 
97085.287263 17.69781 -237.307389 
96859.57464 10.745818 -235.392813 
97318.821589 -18.996829 -256.152639 
96626.566675 33.855338 -74.075533 
96857.056014 -7.311946 -128.450521 
97072.125564 -35.84434 -97.442274 
96908.045499 41.811429 -84.920112 
97180.911793 42.53388 -93.001345 
97291.994269 -43.703874 -75.977167 
97512.894418 -45.336829 -60.693444 
97505.322132 -22.441394 -241.03501 
97769.12853 -16.634729 -394.243867 
97925.949401 -17.939884 -384.147826 
97513.0283 -0.392041 -389.099673 
97875.037879 -24.192288 -216.982745 
98080.599743 -19.060268 -371.900927 
98232.720385 -18.124007 -359.152061 
97879.43458 -4.681983 -374.369815 
97699.610388 -1.868219 -382.972794 
97529.990179 16.112177 -239.483588 
97311.628812 17.882773 -240.642965 
97692.11532 -24.30087 -228.678845 
97927.13727 22.000583 -98.291506 
98291.731506 11.234062 -110.75039 
98214.744359 -25.997979 -198.944854 
98144.014748 0.028936 -60.374386 
98380.775607 -19.963159 -346.856267 
98529.592107 -14.885815 -335.59836 
98228.857182 -9.830978 -352.802235 
98538.758962 -9.920251 -200.317312 
98668.565128 -20.613435 -325.182026 
98803.406445 -15.480323 -311.113299 
98528.230435 -19.555395 -318.111285 
98390.251981 -14.492153 -332.716297 
98253.054674 -14.050456 -192.3646 
98164.882259 6.897176 -230.159222 
98390.270899 -11.177914 -207.705311 
98581.179495 -24.847607 -482.613819 
98805.683601 -35.977904 -600.199174 
98910.69636 -38.166678 -583.009281 
98576.838815 -40.333042 -592.568234 
99050.918552 -46.6083 -698.616732 
99313.062108 -54.08917 -776.860944 
99377.361923 -62.9227 -763.877843 
99047.423203 -58.282102 -768.447194 
99220.329114 -55.810409 -663.361407 
99443.554143 -70.345045 -746.67946 
99510.787475 -76.614102 -725.886799 
99212.758893 -81.021846 -735.155797 
99129.743646 -70.561163 -753.802001 
98904.183479 -59.623049 -672.687798 
98801.068273 -51.598638 -690.075199 
99135.401497 -51.700422 -682.552998 
99063.192413 -27.399165 -412.017961 
99216.114692 -45.017035 -520.580697 
99312.481089 -44.881695 -496.965803 
99054.177187 -56.58675 -509.790113 
99388.608437 -62.861575 -617.700909 
99578.302747 -81.949055 -702.129079 
99645.392162 -86.30372 -675.911668 
99378.273536 -97.334692 -688.460342 
99550.091086 -66.648401 -565.005229 
99711.427667 -89.680926 -647.611511 
99775.919567 -92.041372 -617.443721 
99537.56497 -108.376513 -632.534108 
99459.101738 -103.460561 -661.480613 
99301.592474 -80.945988 -579.105177 
99206.558578 -77.120891 -605.100954 
99470.510987 -65.424653 -592.207864 
99295.917658 -89.88303 -713.159807 
99107.707758 -72.268698 -629.584383 
99006.682758 -66.413731 -652.262524 
99304.994407 -59.629546 -641.550013 
98941.556652 -53.517654 -531.876623 
98795.318324 -35.879643 -423.061792 
98666.034907 -33.031884 -440.625385 
98948.889477 -29.429356 -431.652619 
98701.261386 -45.161449 -574.274455 
98523.939185 -29.961455 -459.462866 
98381.153362 -25.904633 -478.024262 
98707.123606 -24.981683 -466.130518 
98829.579446 -25.670481 -448.980856 
99014.490369 -40.370219 -563.616079 
99116.61409 -42.595138 -542.592642 
98822.309647 -49.721389 -553.689815 
99302.669333 12.345902 -66.920942 
99397.995606 4.69312 -47.858359 
99334.251274 -6.314073 -138.794917 
99371.802305 1.153448 -39.446729 
99391.252905 -12.965895 -229.315328 
99491.077182 -15.848355 -215.357014 
99330.947375 -20.973963 -222.990473 
99531.110697 -3.784378 -115.826848 
99580.154733 -13.009595 -198.997715 
99664.951595 -12.04903 -181.606821 
99523.91974 -21.798997 -190.628108 
99425.617393 -23.39869 -207.19495 
99389.708565 -9.730995 -119.389465 
99272.93038 -15.196184 -127.711387 
99434.949431 -3.925082 -128.919506 
99475.602474 -26.277454 -326.666897 
99579.479633 -45.538687 -420.044216 
99660.160938 -45.494456 -393.157058 
99465.167054 -61.988729 -407.662364 
99701.04058 -68.409579 -506.807387 
99838.483152 -93.856777 -585.729736 
99898.754439 -95.226771 -552.774387 
99686.984204 -115.289163 -569.515636 
99838.705524 -69.414745 -445.241619 
99956.398258 -96.283013 -518.854185 
100011.127799 -97.09274 -484.216323 
99823.630855 -119.641303 -501.900056 
99757.06972 -117.718945 -536.142112 
99646.970893 -89.230023 -461.381691 
99566.882818 -87.763768 -492.226725 
99771.703991 -68.936179 -476.324759 
99799.28442 -25.973976 -238.586988 
99872.535829 -46.030059 -311.747922 
99933.050137 -45.345769 -284.118678 
99787.668823 -64.330341 -298.793554 
99960.734144 -70.091956 -382.214411 
100062.665234 -97.655803 -449.077731 
100110.778827 -97.830654 -413.52802 
99945.122857 -122.143841 -431.784489 
100065.470267 -69.371565 -318.077542 
100155.293208 -97.716342 -377.619495 
100196.085799 -97.431352 -341.425493 
100049.355116 -123.074938 -360.060606 
99999.452825 -122.767139 -396.101765 
99919.034476 -91.942212 -334.869418 
99858.854363 -91.786365 -366.94043 
100015.335359 -69.821352 -350.287613 
99886.474787 -121.105506 -467.049846 
99793.395165 -91.30789 -398.649166 
99722.748228 -90.40833 -430.075118 
99901.813263 -69.981445 -413.850306 
99716.273692 -64.319921 -326.193281 
99655.55754 -40.802997 -250.829096 
99572.210974 -41.181319 -273.135458 
99727.544207 -26.902785 -261.271362 
99555.108412 -62.951908 -380.296809 
99482.150707 -40.517159 -294.15855 
99384.967363 -38.99099 -317.106456 
99565.955963 -26.622238 -304.704172 
99649.615927 -28.012527 -283.096518 
99735.995877 -46.251006 -366.109605 
99806.848538 -46.481899 -339.048454 
99638.695147 -63.917721 -353.217982 
99990.140147 -120.507443 -655.836021 
100154.210935 -147.068978 -716.332469 
100192.982481 -151.645647 -681.689724 
99975.02461 -170.892946 -698.069682 
100328.823184 -172.229829 -766.598499 
100512.041311 -194.71666 -806.167061 
100529.31816 -205.119125 -773.95196 
100314.74519 -219.15648 -787.132904 
100384.717129 -185.071409 -696.40482 
100547.29733 -213.60318 -738.836371 
100565.636481 -220.443997 -701.268086 
100367.828432 -241.367064 -718.205119 
100341.176426 -231.344648 -754.050455 
100176.890239 -205.286407 -713.1398 
100139.367096 -196.548489 -747.811078 
100356.771672 -179.360495 -732.678249 
100701.879424 -213.224135 -834.742989 
100896.326511 -226.464307 -852.221656 
100893.332794 -245.948063 -826.086703 
100690.714182 -250.441606 -833.280138 
101093.374281 -233.19511 -858.692279 
101291.044429 -232.244783 -854.436078 
101270.170404 -264.712776 -837.261899 
101086.647565 -255.617495 -835.884036 
101070.907538 -280.105831 -810.074394 
101251.643547 -292.272212 -814.772952 
101235.251687 -315.521255 -787.670998 
101059.038749 -319.668461 -794.070426 
101071.599923 -290.235788 -817.550011 
100881.790823 -284.421297 -816.861242 
100887.218329 -256.824915 -839.947033 
101081.07533 -258.6511 -836.737188 
100736.044857 -257.451559 -697.466228 
100893.841395 -286.803289 -725.380714 
100896.249253 -295.804274 -686.095463 
100718.02747 -317.509516 -703.066525 
101055.924767 -312.967023 -745.127579 
101220.795201 -334.999488 -756.581385 
101208.087655 -351.193666 -722.059739 
101040.185278 -365.431986 -734.324813 
101046.551139 -335.224449 -668.170269 
101196.955958 -364.542446 -684.598149 
101187.240251 -375.440348 -644.63078 
101027.945729 -397.242482 -661.239641 
101033.358236 -382.843847 -699.203679 
100877.874069 -357.054886 -685.004445 
100876.804466 -343.593053 -722.788052 
101050.641514 -325.232917 -707.919934 
101048.660257 -344.544485 -766.126536 
100876.909163 -327.297547 -757.694713 
100878.468198 -307.734202 -789.236371 
101062.605463 -298.060467 -779.347513 
100709.509972 -305.10191 -740.444986 
100548.111171 -278.861697 -714.476021 
100531.095973 -267.607704 -751.214312 
100726.188345 -249.507335 -736.029948 
100695.508307 -271.992915 -806.078508 
100514.66961 -253.947624 -785.113763 
100499.202657 -237.512174 -815.680353 
100708.791678 -227.715011 -805.152317 
100717.004955 -239.696914 -772.07665 
100892.119441 -262.230059 -795.859225 
100892.381246 -275.723938 -762.119526 
100701.89482 -290.064029 -774.947114 
100324.576114 -128.974001 -355.259888 
100425.734517 -163.508241 -403.142778 
100450.675181 -163.525854 -360.66848 
100305.066033 -194.007388 -382.177259 
100535.569885 -199.950658 -447.91202 
100653.089546 -237.553706 -488.844333 
100668.206634 -238.717178 -443.247207 
100514.332458 -270.742085 -465.86483 
100574.150692 -200.626702 -358.698606 
100682.147151 -239.442916 -397.039939 
100694.790284 -239.841616 -350.352086 
100552.278639 -273.533542 -373.716866 
100534.192264 -272.392962 -420.080793 
100429.861105 -232.906082 -381.255967 
100405.185877 -232.003743 -425.79912 
100555.781509 -200.428811 -403.524075 
100777.2583 -275.554099 -525.29031 
100907.002972 -313.18045 -556.685968 
100911.152939 -316.56025 -510.702418 
100755.663628 -347.536337 -532.72708 
101041.221597 -349.662203 -582.560075 
101178.793689 -384.241283 -602.538987 
101171.482249 -391.261921 -558.656079 
101020.533751 -418.621689 -578.411722 
101038.652711 -358.50617 -490.856994 
101165.184523 -396.784924 -513.271956 
101159.791453 -401.061856 -466.637697 
101016.482629 -432.406443 -488.612818 
101018.167894 -426.309844 -534.238419 
100889.18331 -389.792346 -512.933895 
100885.713414 -384.145642 -558.43214 
101039.661872 -354.663252 -537.33725 
100812.408681 -280.750147 -336.57544 
100923.281622 -322.128782 -367.329401 
100926.853511 -322.955903 -318.265235 
100789.106565 -358.423865 -342.589004 
101037.821967 -363.523184 -394.971067 
101155.205933 -404.31562 -418.970076 
101151.34228 -406.742548 -370.456049 
101014.623274 -440.85216 -393.942625 
101037.955623 -366.090906 -296.299011 
101148.125597 -408.514556 -321.25756 
101145.491273 -409.781162 -271.517187 
101014.069068 -445.712751 -295.97835 
101014.227031 -443.638904 -345.289864 
100903.154711 -401.951902 -320.79307 
100899.89448 -400.085922 -369.986869 
101037.806354 -365.041163 -345.913137 
101015.340978 -437.176069 -441.777567 
100896.405629 -397.554872 -418.515231 
100892.794385 -394.188502 -466.224538 
101038.074293 -361.398354 -443.338953 
100781.691676 -356.794054 -391.257285 
100672.09377 -315.496663 -360.52373 
100659.74651 -314.11172 -408.253386 
100804.68802 -280.139575 -384.666641 
100764.839239 -351.520473 -486.492796 
100646.173689 -312.160328 -455.363942 
100631.50704 -309.495394 -501.704081 
100786.994479 -277.669673 -479.170058 
100796.17979 -279.15259 -432.242951 
100915.330204 -319.069105 -463.694613 
100919.409363 -320.875758 -415.850446 
100773.561805 -354.545872 -439.276225 
101023.735163 -409.043957 -620.852776 
100882.546053 -376.999312 -602.473717 
100879.864339 -368.07354 -644.773987 
101043.467407 -343.269811 -626.269828 
100746.196161 -342.388218 -577.768503 
100615.900085 -305.949904 -547.097384 
100599.532791 -301.336479 -591.336723 
100767.116581 -272.653487 -570.418333 
100727.153372 -327.649154 -663.247766 
100582.614256 -295.44549 -634.178327 
100565.383866 -288.041942 -675.335919 
100746.307482 -263.80212 -656.785237 
100756.736245 -268.798869 -614.33567 
100899.378161 -303.027466 -644.661299 
100903.023778 -308.740231 -601.424837 
100736.622284 -335.845406 -621.370983 
100492.839417 -268.445425 -510.924129 
100378.149345 -230.647386 -469.812075 
100348.896253 -228.714235 -513.159748 
100513.645711 -199.09111 -491.740634 
100272.910125 -193.328239 -424.415202 
100178.13907 -157.251413 -375.465691 
100137.577353 -156.772329 -414.881809 
100292.173767 -129.11608 -394.866942 
100199.764458 -190.660125 -507.354753 
100093.344822 -155.941178 -453.88773 
100045.564957 -154.659327 -492.384446 
100218.349193 -128.711036 -472.990069 
100256.718607 -129.059505 -434.142827 
100368.709028 -162.67165 -486.822527 
100398.366916 -163.255483 -445.23142 
100237.761697 -192.249252 -466.181237 
100394.339108 -249.525579 -680.028256 
100249.782509 -218.074684 -637.481161 
100213.813141 -212.380386 -676.236501 
100412.318742 -189.593465 -658.166492 
100115.97976 -185.511363 -587.349427 
99994.3994 -152.850056 -530.281346 
99940.153711 -150.436067 -567.412893 
100133.581833 -126.83777 -548.968135 
100023.624176 -176.899654 -662.787778 
99883.122505 -147.328757 -603.552802 
99823.62161 -143.399276 -638.41336 
100039.735322 -123.19579 -621.499666 
100087.653526 -125.26253 -585.781164 
100230.954506 -155.2425 -645.198946 
100267.795825 -158.030298 -607.197111 
100070.718976 -181.711007 -625.771416 
100177.23146 -127.974585 -511.307252 
100303.207975 -160.137947 -567.978976 
100336.923658 -161.658101 -527.788908 
100159.088096 -188.452364 -547.802555 
100439.270966 -193.113416 -618.307743 
100584.029868 -225.888602 -661.644332 
100602.203161 -230.14914 -620.312984 
100420.378158 -256.089448 -639.903219 
100490.162008 -197.739285 -534.867883 
100619.911066 -233.408897 -577.57343 
100636.936434 -235.828742 -533.679445 
100469.878143 -265.352163 -555.090051 
100445.646907 -261.29538 -598.162612 
100317.599389 -226.072264 -555.686978 
100284.475825 -222.578514 -597.20442 
100465.299808 -195.785709 -577.125282 
100306.414958 -109.49517 -5.845406 
100269.175239 -85.956143 -22.9384 
100440.670211 -143.556484 -6.771979 
100379.121507 -99.232863 -21.765798 
100461.995449 -121.980945 -40.467919 
100548.813059 -163.725773 -60.721795 
100489.177356 -168.634935 -29.808878 
100443.205395 -186.937559 -41.089434 
100640.672962 -198.013622 -85.220151 
100735.516576 -239.405708 -113.21469 
100736.690121 -245.31392 -70.17957 
100617.759628 -274.935968 -89.947301 
100646.494487 -257.131246 -8.177307 
100595.751561 -226.777254 -31.696734 
100811.449414 -300.575217 -8.475827 
100738.262942 -244.564081 -28.32199 
100621.405847 -281.340067 -48.04585 
100528.359461 -231.840257 -64.435577 
100641.175345 -208.019512 -44.031574 
100833.365427 -281.425981 -141.353128 
100935.009669 -323.993513 -168.879607 
100936.388598 -325.232094 -119.42081 
100809.362977 -361.409743 -143.67381 
101038.610787 -367.240069 -195.814411 
101143.381194 -410.681792 -221.377044 
101141.76192 -411.250835 -170.956511 
101014.297567 -448.28428 -195.976784 
101039.228585 -365.627164 -94.532241 
101140.675807 -411.235769 -120.433513 
101137.951227 -417.798937 -74.564733 
101014.195755 -449.215429 -95.547487 
101014.656053 -448.811397 -145.664914 
100912.731007 -404.088321 -120.585483 
100910.762968 -404.81498 -170.477954 
101039.089807 -367.360375 -145.185678 
101041.327862 -429.668458 -8.941235 
100985.333429 -397.891471 -34.852389 
101212.157246 -475.102813 -8.766045 
101137.69236 -416.832107 -29.914438 
101014.859574 -456.024097 -51.142156 
100913.969237 -403.3663 -71.318446 
101036.85786 -376.682545 -48.687363 
100926.026627 -364.613526 -10.317384 
100717.607742 -313.405551 -28.774766 
100811.900845 -363.475434 -93.508314 
100716.670569 -312.023055 -72.35776 
100711.931212 -318.02962 -116.826689 
100836.574114 -281.281382 -92.691979 
100837.360322 -275.135018 -49.570443 
100937.156229 -326.078042 -70.790173 
100866.367559 -331.716753 -34.425696 
100815.61516 -352.628044 -48.085545 
100540.646548 -197.890455 -8.88932 
100362.835081 -153.497056 -23.404672 
101249.303875 -453.624611 -244.633986 
101355.762126 -495.704452 -265.224511 
101349.440998 -497.285523 -216.281136 
101225.608342 -532.609959 -240.207934 
101461.928777 -536.447842 -282.78964 
101567.200956 -575.353662 -296.885218 
101555.174828 -578.637365 -251.243639 
101439.695471 -610.558786 -272.946476 
101445.678711 -540.500509 -187.29573 
101545.222706 -581.111702 -205.06303 
101537.343641 -582.872419 -158.48864 
101422.888058 -616.463408 -181.162731 
101430.349603 -613.949126 -227.300579 
101326.091483 -575.117266 -210.705881 
101332.690977 -572.608276 -258.239867 
101452.896248 -538.79429 -235.297594 
101671.021983 -611.990809 -307.16171 
101772.772501 -645.968524 -313.379578 
101754.478152 -651.695301 -272.348488 
101650.95616 -678.876884 -290.94415 
101871.829418 -676.910897 -315.352678 
101967.602139 -704.472841 -312.94398 
101942.834307 -713.526822 -277.597371 
101854.478868 -734.746064 -292.281496 
101831.672182 -689.914094 -237.948981 
101921.133301 -720.728929 -241.392762 
101902.536969 -726.374327 -204.489566 
101813.441489 -750.68295 -221.042305 
101832.472187 -743.635115 -257.095084 
101735.262467 -715.747573 -255.578447 
101754.005355 -708.525676 -293.781473 
101850.305442 -684.190943 -277.053021 
101624.492493 -624.181573 -130.118081 
101715.551581 -662.041556 -145.432341 
101707.667734 -664.766273 -102.920345 
101603.270927 -694.996987 -123.188225 
101803.256386 -697.659729 -157.886684 
101887.073339 -730.718614 -167.042294 
101874.76548 -733.913208 -129.197999 
101784.456077 -760.318868 -147.025054 
101786.772067 -699.856465 -76.353482 
101865.711778 -735.793525 -91.131063 
101858.47783 -741.935073 -56.368154 
101767.051753 -765.158365 -71.886883 
101774.60258 -763.150798 -109.48419 
101688.022588 -730.2705 -96.919283 
101695.489056 -728.923537 -136.774942 
101793.581195 -699.961525 -117.240384 
101797.416572 -756.169516 -184.29151 
101705.985902 -725.767147 -176.898096 
101719.256446 -721.411993 -216.568119 
101815.967889 -694.33296 -198.185402 
101611.625386 -692.421473 -165.931996 
101515.264079 -656.470046 -151.848429 
101523.371433 -653.948811 -196.389403 
101632.674636 -622.249425 -174.964489 
101635.425258 -684.625332 -249.96144 
101533.59529 -650.56914 -240.46592 
101545.975904 -646.10382 -283.932314 
101655.896541 -616.387635 -263.674977 
101643.131014 -619.74465 -219.552441 
101738.840775 -656.131118 -230.581626 
101725.870025 -659.487311 -188.216085 
101622.334223 -689.068155 -208.246935 
102059.520656 -728.352024 -306.07986 
102147.029228 -748.289006 -294.74908 
102115.920889 -761.561056 -265.780476 
102045.259194 -775.89023 -275.940717 
102229.593466 -764.067782 -278.995302 
102306.706128 -775.519309 -258.913061 
102269.669114 -793.878285 -236.653159 
102218.60817 -800.685435 -241.868275 
102164.696185 -792.601948 -226.792473 
102236.04049 -808.961343 -213.473372 
102205.943074 -821.235044 -189.518136 
102152.712724 -832.546818 -197.4822 
102183.929049 -818.197801 -220.168321 
102102.743632 -805.485248 -235.892438 
102134.394228 -790.405674 -261.090286 
102195.454593 -779.779323 -253.3633 
102377.888043 -782.524475 -234.645304 
102442.68886 -785.015487 -206.379327 
102400.352207 -809.234062 -190.78374 
102370.176657 -808.229096 -190.851278 
102500.688233 -782.976702 -174.341903 
102551.496229 -776.445094 -138.794473 
102504.643644 -807.138131 -129.462263 
102496.064594 -798.388829 -124.407071 
102414.589228 -833.230684 -148.864191 
102461.00219 -832.865633 -119.577999 
102420.791127 -854.280038 -109.221746 
102409.247262 -851.037237 -107.533846 
102450.979183 -827.065471 -116.323045 
102393.770243 -831.173943 -148.093362 
102436.55561 -805.459654 -159.437998 
102455.988427 -810.36799 -161.9493 
102239.758881 -847.232068 -154.322173 
102294.195155 -859.46685 -139.664391 
102266.248071 -870.384294 -121.535269 
102230.468011 -878.201636 -127.016728 
102342.446755 -867.726338 -121.011158 
102384.198658 -871.962765 -98.464814 
102351.385123 -886.427366 -87.370697 
102336.577381 -887.290916 -88.217261 
102285.505516 -890.50839 -91.466537 
102322.485849 -898.122521 -75.996159 
102297.613405 -907.434978 -64.392715 
102279.2634 -911.315247 -67.126622 
102305.939843 -900.612761 -77.85661 
102258.440154 -896.410669 -95.606293 
102286.620059 -884.717166 -109.58453 
102312.012953 -880.36908 -106.41374 
102371.059161 -870.927863 -98.136105 
102318.650209 -870.256021 -123.056266 
102354.413494 -852.579209 -135.927417 
102376.686246 -852.170913 -135.188037 
102259.922906 -865.561313 -144.079406 
102195.257744 -856.85281 -161.07853 
102225.732228 -843.322217 -181.048089 
102268.912054 -835.597487 -175.457839 
102329.905177 -831.078955 -176.122171 
102259.80795 -826.748833 -200.203137 
102297.369836 -806.64028 -218.398558 
102338.11136 -803.725014 -215.745995 
102301.737194 -821.245132 -195.972289 
102361.381186 -829.353568 -174.388756 
102325.947016 -845.93333 -157.313599 
102293.107489 -850.010816 -160.487507 
101927.406532 -766.076266 -35.807234 
101993.723116 -802.488926 -46.17037 
101943.902583 -806.691374 -22.637446 
101913.528873 -819.587119 -31.467636 
102056.141309 -827.241207 -55.055254 
102111.490192 -852.484953 -62.387533 
102103.389494 -857.664052 -38.514026 
102042.180973 -873.161513 -48.835814 
102050.808765 -863.245923 -4.63127 
102017.576181 -847.252906 -20.162849 
102134.120481 -885.276778 -3.832099 
102100.167154 -857.118922 -15.283921 
102037.09067 -877.515358 -26.358808 
101979.550374 -849.887068 -41.1591 
102050.027161 -834.35564 -28.105149 
102161.525206 -873.553142 -65.644777 
102206.166462 -890.89394 -65.07212 
102194.19938 -894.946302 -46.061651 
102151.516625 -907.050499 -54.178168 
102244.68124 -904.619277 -60.764314 
102276.860565 -914.692572 -52.610796 
102260.296971 -920.140468 -40.702363 
102238.195028 -926.226971 -44.84032 
102220.792609 -911.285216 -29.347912 
102248.002256 -923.828738 -28.744845 
102239.839494 -927.639367 -17.614536 
102213.712258 -934.15444 -21.971321 
102223.989657 -930.877936 -33.474889 
102186.116708 -921.93229 -36.565599 
102197.917333 -918.405519 -51.471807 
102230.560037 -909.079168 -45.15855 
102214.191455 -930.055694 -2.161422 
102196.281934 -923.010444 -10.608449 
102248.514352 -939.145512 -1.3471 
102236.297982 -927.551038 -6.834016 
102207.954547 -936.891969 -11.965638 
102178.075129 -923.910413 -21.613884 
102214.871247 -915.834123 -14.785987 
102178.890313 -911.175036 -3.543097 
102089.780304 -891.839824 -13.566458 
102142.173126 -910.539292 -35.460065 
102093.363073 -891.192943 -33.338515 
102099.67974 -891.862713 -53.352444 
102152.117952 -876.353257 -43.170984 
102146.132588 -874.378493 -22.924265 
102186.022087 -897.32393 -27.428454 
102154.737498 -900.191812 -13.46037 
102138.041419 -907.464002 -18.625948 
102256.649155 -919.756896 -56.09548 
102214.001225 -912.979355 -66.458191 
102234.207525 -905.72232 -81.205905 
102263.028898 -898.492598 -76.231383 
102165.310145 -902.453634 -72.902064 
102111.05232 -888.231958 -75.540918 
102126.326763 -883.171347 -97.550031 
102175.211205 -869.434451 -88.232197 
102204.837817 -888.340114 -109.406096 
102145.48145 -876.440614 -119.211024 
102168.480882 -867.769703 -140.425928 
102214.378187 -856.538655 -132.673123 
102192.846702 -863.849915 -110.610323 
102242.207924 -879.054616 -103.009212 
102222.159353 -885.786307 -84.1574 
102183.104748 -896.325025 -91.342364 
102051.509646 -870.317062 -74.368284 
101986.467695 -848.604172 -69.499682 
101996.7079 -846.022879 -98.057403 
102064.805975 -826.092082 -84.595758 
101916.347643 -825.791704 -60.46788 
101843.274911 -792.689172 -52.133036 
101847.798734 -795.518595 -83.876936 
101932.788276 -770.172181 -67.196234 
101936.001927 -818.740261 -124.553839 
101857.179206 -792.539302 -118.825258 
101869.694204 -788.649065 -153.526213 
101952.142179 -764.919298 -137.471834 
101940.539859 -768.009158 -102.288446 
102011.445147 -796.901125 -109.817151 
102000.939405 -800.338786 -77.794274 
101924.243402 -822.467272 -92.543994 
102125.051665 -844.181308 -173.964308 
102049.709538 -827.634438 -182.689908 
102074.492646 -817.759365 -209.706153 
102137.419183 -802.956247 -199.433522 
101969.667331 -807.330052 -187.27138 
101885.419755 -783.431693 -187.783725 
101904.358204 -776.645902 -221.449632 
101985.273151 -755.310307 -206.860948 
102016.752473 -788.714483 -247.298363 
101926.482323 -768.033436 -254.359427 
101951.761215 -757.275921 -286.34548 
102031.545913 -739.403009 -273.857986 
102006.77943 -748.278162 -240.731968 
102088.127126 -772.311099 -235.878691 
102063.725644 -780.914083 -205.197916 
101991.540845 -799.073485 -217.688363 
101967.059525 -760.783067 -172.39145 
102042.780506 -787.691558 -173.873923 
102025.343947 -792.915204 -142.025551 
101951.156522 -813.795835 -156.188372 
102113.710455 -811.206691 -171.419364 
102179.479652 -831.107114 -164.916984 
102156.734715 -838.929754 -139.787911 
102101.025357 -853.490374 -149.754855 
102077.324392 -822.585864 -113.876835 
102137.776522 -845.002237 -114.245353 
102122.664607 -849.515418 -88.392877 
102064.181841 -866.381797 -99.79653 
102080.707274 -860.804095 -124.9848 
102010.759017 -841.532175 -126.716613 
102028.450051 -835.460228 -154.984811 
102093.650367 -817.661781 -142.866189 
101983.72753 -826.49418 -6.312418 
101840.136578 -793.423013 -21.084335 
101763.326376 -770.909928 -38.6474 
101682.894526 -730.786125 -57.34304 
101781.199428 -709.17165 -39.115911 
101690.479967 -698.659834 -8.608626 
101504.788534 -654.78144 -26.698179 
101597.682301 -698.057445 -80.358468 
101507.01297 -653.763531 -66.563448 
101509.202284 -658.411365 -107.097879 
101619.294223 -625.31284 -85.478214 
101615.319044 -619.828202 -45.61062 
101702.176766 -666.474383 -61.106155 
101638.21573 -671.624916 -29.81488 
101596.74067 -689.105305 -41.64895 
101325.125856 -539.124572 -10.077338 
101116.189089 -488.523657 -29.558257 
101417.31832 -618.052652 -134.792528 
101317.438612 -576.990969 -115.249962 
101320.941563 -576.809663 -162.783564 
101440.294249 -541.508205 -138.979791 
101216.076186 -538.272038 -92.489769 
101117.04386 -487.497262 -74.07169 
101116.075018 -493.237701 -119.535946 
101240.65439 -455.993774 -94.984547 
101221.411176 -534.383766 -191.195226 
101117.503276 -492.113515 -169.497499 
101119.295208 -490.968389 -219.35921 
101245.337121 -454.624469 -194.780542 
101242.172564 -455.458857 -144.781218 
101344.42239 -498.541874 -167.028797 
101340.414931 -500.400975 -118.24988 
101218.07063 -535.840889 -141.85217 
101238.560642 -449.618156 -50.706319 
101337.554214 -501.574437 -70.118623 
101266.09133 -507.22804 -34.142568 
101217.13919 -527.673313 -47.736612 
101436.42102 -540.460046 -90.482092 
101531.591182 -583.750209 -111.814892 
101526.035045 -590.334266 -69.221529 
101412.72138 -619.286041 -88.496174 
101435.366025 -600.879133 -8.285375 
101381.626502 -571.642194 -33.2919 
101591.489002 -642.420498 -7.795116 
101524.443868 -589.219325 -27.698203 
101410.790784 -625.723692 -47.45869 
101315.002901 -576.795978 -68.236908 
101431.925013 -551.109127 -46.539581 
101783.333717 -750.313816 -6.795741 
101737.590928 -726.754981 -28.035782 
101908.740761 -783.607486 -6.089486 
101855.807146 -741.121904 -22.437824 
98028.022052 29408.406615 -13545.819755 
97743.595648 27377.804414 -13831.64077 
97448.914967 26909.506242 -12014.718079 
97452.837029 26030.326026 -11252.309173 
96452.02619 27304.133818 -11553.207111 
97596.61799 27360.176617 -11954.841847 
97556.078641 25136.062345 -10471.437991 
97578.467202 24199.94131 -9743.398869 
96803.433723 26111.414678 -9858.222437 
97582.438166 25235.120183 -10386.26161 
96418.552251 28925.565675 -10416.521846 
96073.226705 27261.371578 -10709.084061 
96715.977379 26924.518467 -10408.935505 
97473.92692 26105.170985 -11123.403511 
96877.579415 27358.453873 -10522.045129 
97698.279035 23378.019514 -8992.363883 
97798.617727 22608.756402 -8283.225659 
97097.527396 24433.517254 -8440.018906 
97778.75181 23645.723314 -8905.212424 
97922.660735 21898.928363 -7585.805707 
98051.585785 21232.809433 -6912.508567 
97402.70775 22926.104196 -7095.005106 
98019.202378 22220.86082 -7504.500384 
96598.670674 25437.765572 -7844.037261 
96728.2643 24621.966988 -7220.600723 
96035.791591 26248.446865 -7296.390966 
96609.822236 25486.234356 -7755.843026 
97318.924095 23870.347047 -7660.742935 
97148.417484 24604.078751 -8324.679574 
97888.831807 22909.618779 -8191.958714 
97256.578466 23661.18223 -7755.155638 
95615.334994 28684.600498 -7775.697805 
95261.005015 27233.147558 -8059.985294 
95865.534389 26945.683307 -7772.009524 
96401.584604 26244.448836 -8388.138255 
96002.085037 27310.747172 -7869.253762 
95802.993937 28740.898181 -8476.380262 
96086.094829 27575.989804 -9834.802274 
96013.284165 28803.98525 -9203.254334 
96070.039682 27538.239803 -9676.534327 
97043.075891 25433.338719 -9032.301244 
96815.803488 26158.113487 -9674.992272 
97643.84399 24419.421546 -9619.665574 
96986.013117 25251.169933 -9112.97286 
96242.029388 26917.518409 -9162.719518 
96385.317185 26184.131857 -8511.154402 
95451.83237 27245.921464 -8791.962896 
96375.518152 27306.291818 -9090.198102 
96776.061964 29032.818589 -11229.981715 
97447.891965 27753.636668 -12800.479516 
97197.744769 29159.323431 -12081.855093 
97412.118221 27654.09635 -12617.608084 
98193.152635 20604.772708 -6259.420114 
98340.014733 20006.372428 -5629.841805 
97737.905899 21579.306817 -5815.14271 
98293.116897 20937.98714 -6187.370381 
98494.811878 19432.496249 -5021.559773 
98656.123504 18877.230117 -4435.152121 
98091.530033 20348.288719 -4609.255588 
98590.046687 19749.946498 -4956.928818 
97308.039498 22497.569439 -5345.028857 
97502.597108 21847.657445 -4751.350307 
96892.996396 23363.939504 -4860.394295 
97365.847952 22690.396497 -5253.903964 
97989.804803 21209.354469 -5123.258137 
97814.951175 21836.133385 -5730.334887 
98438.509768 20334.690815 -5561.23264 
97912.706322 20952.349284 -5202.579841 
98824.153283 18335.966664 -3870.216189 
98998.350846 17804.490673 -3326.819576 
98465.913916 19190.602892 -3478.804533 
98908.689945 18617.755562 -3812.426593 
99178.706883 17279.203019 -2804.828695 
99365.044689 16756.842381 -2304.362358 
98860.878226 18072.161481 -2425.68791 
99248.14833 17510.674514 -2753.731206 
98118.108751 20011.764235 -3062.245634 
98331.572165 19423.074569 -2533.046528 
97780.254229 20802.994152 -2624.80774 
98170.177498 20185.327557 -2986.477117 
98722.01711 18832.491032 -2878.46457 
98533.124681 19414.638845 -3411.040175 
99075.83262 18062.763265 -3272.332621 
98660.774355 18628.348454 -2942.449234 
96512.000019 24190.546384 -4353.737115 
96737.155878 23510.63229 -3795.748855 
96130.340482 24969.344752 -3851.962982 
96541.126395 24286.94615 -4257.206565 
96974.217858 22851.78584 -3241.196944 
97210.172707 22204.822305 -2699.900243 
96623.960126 23620.294937 -2758.322284 
97006.045466 22958.01525 -3147.214907 
95809.44515 25751.420138 -3321.077166 
96023.192826 25038.912559 -2801.697866 
95410.141138 26406.463435 -2836.404902 
95803.988551 25743.708323 -3237.138911 
96405.550189 24363.574816 -3200.387368 
96148.450661 25030.474294 -3740.362002 
96768.382892 23614.856741 -3694.91665 
96384.555278 24292.277678 -3297.162956 
97596.592539 21562.796296 -3076.276823 
97375.191138 22198.588145 -3623.929736 
97964.843881 20795.652721 -3528.832207 
97554.395474 21422.127916 -3162.333946 
97157.717103 22845.171422 -4186.049843 
96934.962807 23503.965369 -4757.55081 
97561.485664 22043.978497 -4662.189292 
97113.989484 22699.449915 -4278.918874 
98348.302859 20002.388932 -3962.904447 
98166.805398 20599.207281 -4533.49059 
98746.627123 19178.909016 -4373.886145 
98276.379692 19762.644548 -4034.344915 
97704.632587 21220.261137 -4171.400414 
97908.969137 20609.400592 -3608.7103 
97331.367442 22052.49261 -3714.681912 
97762.790405 21414.121469 -4087.941005 
99557.218378 16234.540524 -1825.6432 
99754.986945 15709.753688 -1369.061888 
99277.195797 16965.288015 -1452.517573 
99607.970962 16403.715805 -1781.866468 
99958.069777 15180.245511 -935.151793 
100166.061856 14644.056673 -524.629948 
99714.587001 15847.656001 -563.86785 
99987.050585 15276.848203 -900.048851 
99001.914125 17677.072893 -1054.431035 
99235.701764 17091.847761 -600.455197 
98731.659899 18372.018746 -633.805528 
99026.243076 17758.169397 -995.301173 
99520.188131 16498.595626 -949.825861 
99314.092101 17088.275695 -1400.515802 
99795.216295 15843.851521 -1329.404502 
99493.319038 16409.031984 -997.251 
100378.413213 14099.508445 -138.389142 
100594.385576 13545.205745 222.499604 
100171.223713 14701.465296 233.178073 
100382.888807 14114.42709 -114.084046 
100813.016495 12980.05187 556.794775 
101033.072331 12403.270816 863.095036 
100642.395603 13513.377417 928.601759 
100790.63271 12905.439251 567.400474 
99967.475044 15292.099563 630.000456 
100220.161932 14671.038993 991.537448 
99767.704886 15872.890053 1050.930608 
99947.095666 15224.168306 665.969072 
100383.886304 14041.478239 617.716117 
100162.933967 14673.832811 263.655203 
100585.69681 13516.243192 240.365835 
100405.435111 14113.307598 594.336559 
98466.565528 19052.533389 -192.711217 
98733.861562 18416.051732 260.079677 
98206.324779 19721.154447 266.896602 
98469.685454 19062.933149 -121.895847 
99007.300739 17771.008228 693.527558 
99286.854533 17114.933693 1105.842553 
98779.912223 18392.595959 1155.403566 
98990.208019 17714.0325 753.236499 
97950.742031 20380.725298 743.502909 
98249.593029 19700.802389 1198.842729 
97698.908972 21034.066533 1235.493634 
97937.988194 20338.213317 823.597411 
98474.630709 19011.959265 790.839558 
98200.835834 19702.858034 342.636896 
98727.515417 18394.897928 325.683526 
98489.664688 19062.072463 720.410433 
99481.853904 16449.800474 711.388019 
99231.794339 17117.4434 306.663866 
99711.02206 15875.564737 285.87512 
99500.740107 16512.754485 663.236614 
98986.071605 17771.958819 -120.489609 
98744.726491 18415.574054 -568.427265 
99250.333089 17140.618845 -546.212911 
98982.521948 17760.12663 -180.730225 
99944.945803 15293.180799 -116.563858 
99730.553806 15900.878683 -521.47937 
100183.110362 14700.885024 -494.611256 
99940.713216 15279.072175 -153.33827 
99474.730264 16500.704189 -167.531121 
99718.782887 15901.434159 243.095999 
99238.903309 17141.139967 252.107328 
99478.652741 16513.779112 -118.706845 
95114.090195 26999.049825 -2288.387315 
95376.565328 26431.450894 -1772.890541 
94541.916806 27250.257063 -2014.372369 
95224.503497 27306.15133 -2215.767943 
95687.778989 25817.06811 -1239.973472 
95926.948869 25115.335176 -743.492867 
95325.9235 26436.517073 -763.210155 
95675.715161 25787.076041 -1157.965016 
94875.606432 28462.68193 -1145.177885 
94522.147401 27248.985732 -1413.68351 
95071.037931 27007.79365 -1153.473651 
95378.811612 26441.345161 -1664.215207 
95182.811286 27311.064309 -1229.854836 
96231.795902 24443.251805 -220.780086 
96519.172062 23761.21373 278.980527 
95932.1083 25121.995305 279.15754 
96232.707992 24445.595847 -125.51994 
96823.059999 23078.48708 777.587945 
97130.915012 22386.566464 1264.717694 
96548.03609 23751.481221 1285.509222 
96815.256393 23052.606566 872.134925 
95681.56092 25832.870399 807.328764 
95951.562433 25119.927613 1295.747443 
95344.182004 26439.169234 1289.466541 
95662.664041 25779.863234 889.219373 
96239.141078 24428.29218 885.32822 
95930.337468 25116.69518 388.529651 
96516.450635 23752.251657 379.674081 
96244.687456 24445.514976 789.504215 
94870.002476 28461.000743 913.683515 
94507.261987 27252.079967 639.788921 
95062.673514 27004.499024 901.344287 
95343.263049 26444.988795 391.534368 
95175.407802 27313.297469 826.606241 
94869.854667 28460.9564 340.428818 
94777.577326 27483.011825 -747.645766 
94862.13741 28458.641223 -233.593895 
94773.996616 27479.610871 -623.658632 
95672.404002 25833.14207 -136.317177 
95323.880368 26432.664901 -613.265414 
95929.242677 25124.143198 -625.511197 
95656.728444 25789.49458 -217.1152 
95059.554234 27012.199932 -224.301075 
95344.000353 26443.528311 283.534736 
94503.986199 27253.365806 44.896708 
95167.226835 27308.300396 -149.605039 
97383.555077 21687.124481 850.947379 
97092.27603 22387.972441 369.557639 
97654.715921 21035.840149 357.293618 
97393.844398 21721.411019 762.544127 
96808.742335 23078.934095 -124.188817 
96523.809584 23761.193127 -624.65817 
97103.32945 22399.608387 -616.52868 
96807.200262 23073.848392 -218.653762 
97932.36704 20381.482462 -122.92409 
97668.273721 21050.661531 -603.939885 
98216.396004 19720.729009 -587.776822 
97929.728584 20372.687593 -203.255674 
97375.29079 21715.075943 -212.096489 
97659.273139 21051.027987 272.449206 
97095.850732 22399.872802 276.584084 
97377.384334 21722.051123 -123.613646 
96256.351036 24441.90474 -1141.877261 
95975.368453 25109.602047 -1652.953337 
96569.076836 23740.968125 -1635.577193 
96249.06764 24416.359575 -1237.863237 
95740.490581 25815.017376 -2191.62067 
95412.92299 26419.197049 -2683.798437 
96035.046145 25079.502576 -2683.043234 
95718.136718 25748.466087 -2274.689493 
96901.829385 23032.692851 -2127.720376 
96645.734704 23692.940972 -2655.045539 
97240.686272 22306.555745 -2607.190018 
96880.808902 22962.685101 -2221.666026 
96299.973894 24368.018526 -2257.20162 
96555.671433 23696.054372 -1736.469616 
95966.630868 25079.694802 -1762.155214 
96314.18 24414.523053 -2161.669226 
98507.745677 19050.759982 -1035.776763 
98274.761118 19680.105186 -1521.201098 
98806.348635 18368.739518 -1464.781267 
98486.331508 18979.379399 -1105.774618 
98045.612607 20306.516839 -2023.72339 
97819.217251 20932.871555 -2542.079697 
98378.468312 19579.395217 -2461.077341 
98011.209306 20191.839417 -2102.038583 
99112.38222 17672.132369 -1872.650566 
98915.016994 18252.624045 -2365.476837 
99425.552005 16958.533436 -2256.793777 
99066.379786 17518.790924 -1928.863705 
98550.045799 18839.866461 -2021.496708 
98773.376757 18258.833256 -1528.418206 
98246.215668 19584.953673 -1595.561822 
98590.555356 18974.898314 -1953.679525 
97453.376985 21568.371686 -2169.194615 
97698.735415 20937.695035 -1652.983778 
97134.14217 22310.556002 -1700.062058 
97481.195975 21661.098157 -2081.875124 
97949.450745 20310.466455 -1150.487884 
98205.089126 19683.039364 -663.410383 
97658.881564 21019.354005 -688.890164 
97967.64823 20371.124969 -1070.684794 
96825.697625 23035.433906 -1217.379846 
97095.942147 22374.982161 -710.098686 
96518.433683 23743.224365 -727.595219 
96836.847192 23072.741329 -1122.847599 
97409.344795 21713.743001 -1099.675342 
97152.809167 22372.783552 -1607.312658 
97722.468244 21016.804648 -1568.939752 
97394.565759 21664.463577 -1187.899615 
94900.196369 28470.058911 -1722.687342 
94852.719139 27485.187496 -2823.353456 
94916.708112 28475.012434 -2303.130416 
94847.484171 27477.609733 -2695.648204 
95176.707404 26995.820507 -3240.220053 
95527.386389 26407.646349 -3765.594359 
95291.850096 27306.254219 -3320.42323 
95027.543476 28508.263043 -3831.620731 
95037.244166 27488.417262 -4977.002722 
95079.49435 28523.848305 -4437.646869 
95031.798887 27481.326703 -4844.296034 
95939.71732 25749.455509 -4311.444268 
95629.50921 26364.047926 -4830.738129 
96289.797517 24966.701913 -4816.183449 
95908.171993 25652.775383 -4393.515173 
95281.748326 26976.405313 -4417.587632 
95520.748658 26380.733002 -3877.313046 
94671.969004 27242.643442 -4127.33302 
95396.901358 27300.179604 -4344.143611 
95295.993349 28588.798005 -6055.849255 
95400.292501 27512.657831 -7281.628365 
95402.049399 28620.61482 -6705.873086 
95391.22683 27495.562652 -7138.290364 
96727.689447 24182.949043 -5349.512212 
96501.429095 24868.373317 -5936.827886 
97166.840932 23353.987593 -5856.117005 
96689.812682 24055.270392 -5446.06923 
96328.932647 25626.912168 -6559.860123 
96044.268559 26281.356843 -7127.574276 
96767.115672 24752.942525 -7095.780975 
96287.53194 25497.255651 -6644.372082 
97646.667863 22485.855951 -6356.639274 
97472.639989 23159.286577 -6995.446888 
98151.024563 21564.291464 -6833.823488 
97571.833418 22236.467123 -6443.406881 
96933.066083 23883.841897 -6572.200357 
97112.167977 23171.49699 -5955.974657 
96469.35795 24760.399505 -6051.048898 
96982.184737 24046.71842 -6477.72274 
95615.974356 26945.088491 -6678.718641 
95821.620697 26299.990854 -6095.823907 
94939.645912 27237.586738 -6358.653616 
95738.958848 27295.254649 -6604.315017 
96084.977727 25630.675188 -5496.681907 
96264.103626 24880.502084 -4938.053993 
95624.105845 26340.978909 -4990.20373 
96086.457797 25646.559368 -5410.948814 
95194.391924 28558.317577 -5419.958293 
94840.38881 27232.074307 -5695.439466 
95415.817261 26974.803578 -5420.543777 
95832.897502 26340.742537 -5979.84858 
95537.909914 27301.390695 -5507.658063 
94971.44405 28491.433215 -3236.109085 
94621.299978 27243.233275 -3505.261222 
101253.003142 11814.439367 1139.861821 
101470.897866 11213.525552 1385.452943 
101119.108656 12275.056827 1509.443241 
101201.971844 11644.335041 1133.13022 
101684.443567 10600.932083 1598.169909 
101890.891612 9977.541957 1776.320584 
101586.397771 10984.34556 1960.364488 
101603.899197 10332.450848 1569.905702 
100990.739455 12725.891438 1904.372359 
101245.83067 12048.33682 2143.954252 
100868.909848 13167.807832 2324.449392 
100911.853378 12462.937848 1902.793924 
101274.856524 11368.468202 1736.979451 
101054.129908 12058.461 1505.618038 
101405.142336 10994.340451 1368.501643 
101355.146206 11636.100475 1752.162544 
102087.036867 9344.762737 1918.299117 
102269.215538 8704.564505 2022.683153 
102021.714392 9646.916514 2265.13561 
101977.538057 8979.766703 1864.160935 
102433.328068 8059.50586 2088.347075 
102574.893169 7412.741587 2114.587932 
102393.944906 8278.04123 2409.351471 
102297.425982 7606.498909 2004.580933 
101965.725572 9935.011895 2634.697794 
102176.837619 9209.667064 2714.626817 
101920.776474 10208.823716 3027.04825 
101822.348633 9457.088763 2574.155345 
102077.572665 8496.966639 2285.118711 
101895.611952 9226.575048 2208.39327 
102146.05061 8294.014745 1954.125075 
102217.994557 8965.039613 2358.039665 
100754.617524 13601.914602 2769.649641 
101051.281982 12844.593273 3002.781867 
100648.87856 14029.566938 3240.138134 
100648.029182 13246.620129 2770.698777 
101342.349818 12068.794505 3194.93233 
101623.325556 11275.885526 3342.579724 
101282.585064 12410.22386 3656.557418 
101198.898185 11590.622397 3163.302071 
100552.769255 14452.379932 3736.287177 
100897.383352 13610.044183 3963.785532 
100467.468542 14872.250454 4258.692677 
100418.550047 14004.982573 3737.630699 
100828.475852 12763.606512 3454.768561 
100528.473975 13628.218322 3241.616603 
100926.464239 12428.534132 2988.483324 
100968.558178 13230.5476 3470.270078 
101529.919511 10488.184859 2868.234871 
101286.803807 11294.005624 2729.169528 
101609.609506 10226.462368 2467.864735 
101674.395612 10969.771861 2914.959064 
101034.344365 12084.906007 2546.930658 
100776.156523 12858.63008 2324.487201 
101150.869398 11731.799245 2129.803695 
101144.136944 12450.881272 2560.784173 
101698.690265 9950.417789 2090.342588 
101490.657244 10665.210468 1932.572544 
101795.688859 9660.199449 1735.646738 
101809.792989 10320.760202 2132.003126 
101495.774697 11356.503949 2347.155369 
101737.111871 10651.470249 2511.516014 
101413.941833 11717.799043 2758.602601 
101384.518831 10985.651062 2318.98549 
102689.138125 6768.005533 2101.258383 
102771.128283 6129.562872 2048.898499 
102663.955211 6903.787981 2384.467242 
102531.848051 6243.705287 1985.777128 
102815.9355 5502.12748 1958.856172 
102818.841384 4890.742704 1833.384481 
102787.610193 5560.703961 2192.706224 
102644.876738 4931.931605 1812.552447 
102648.598151 7017.813087 2681.821325 
102731.112016 6298.344852 2579.576368 
102644.630455 7108.521458 2992.328044 
102453.622607 6367.894609 2544.039259 
102563.418505 5614.151032 2165.64006 
102488.337758 6318.396471 2258.923155 
102605.847428 5578.626689 1917.655777 
102746.886753 6225.711859 2308.751493 
102775.566832 4300.627095 1675.704208 
102682.515257 3736.990462 1490.020839 
102721.767071 4293.080158 1851.664146 
102600.54042 3717.205724 1503.703213 
102537.013555 3204.829327 1281.488111 
102337.532878 2708.714096 1056.114126 
102432.68819 3147.480672 1396.879638 
102368.919414 2644.515523 1093.907805 
102666.971792 4259.242026 2027.941555 
102524.685192 3641.451584 1778.066272 
102610.044396 4197.379968 2201.698674 
102460.227806 3570.095407 1822.279627 
102419.581679 3078.76446 1438.369899 
102531.071755 3657.429104 1664.103211 
102509.582468 3160.547833 1308.646478 
102606.620055 3702.225714 1635.567524 
102653.740386 7174.183339 3314.785131 
102729.671271 6365.753299 3148.005632 
102677.765218 7212.842373 3647.705433 
102416.449161 6383.212589 3144.49315 
102742.400013 5579.002882 2931.129495 
102684.327038 4822.734882 2669.277572 
102741.978383 5525.676844 3181.520951 
102495.226639 4755.091635 2714.032612 
102718.710926 7222.248581 3989.213302 
102776.18343 6314.96713 3738.034115 
102778.761196 7199.778079 4336.901879 
102433.245079 6270.695757 3772.192498 
102479.432295 5466.574974 3222.785875 
102417.209272 6344.322555 3456.152365 
102485.405706 5551.53475 2953.304939 
102746.364924 6356.350406 3441.631836 
102486.992876 4126.052889 2247.195711 
102523.531347 4845.150133 2486.283491 
102537.126678 4216.48437 2056.460478 
102713.917632 4882.468742 2459.681217 
102502.112243 5602.793734 2685.515485 
102429.144545 6390.23509 2839.77689 
102528.478643 5622.900276 2422.208438 
102724.97865 6345.681757 2859.919883 
102589.56705 4277.032933 1864.220961 
102598.837425 4931.461401 2032.937272 
102644.472166 4309.511975 1673.288284 
102780.813569 4914.521332 2039.052871 
102765.541619 5594.336508 2434.069849 
102745.899074 4912.392354 2248.62602 
102750.324577 5601.127568 2681.002696 
102558.204527 4903.212867 2258.29754 
100394.322902 15291.3939 4808.199787 
100796.356796 14356.114905 5032.264902 
100334.881165 15712.386416 5385.908879 
100232.405839 14751.670356 4807.630209 
101193.57962 13387.120798 5200.640545 
101577.721245 12386.629712 5306.029899 
101202.224724 13701.294374 5772.198506 
100978.574639 12670.437528 5149.175724 
100290.996423 16138.251872 5993.227221 
100764.642452 15098.740856 6217.826485 
100264.854901 16572.541911 6631.874583 
100101.219375 15505.661712 5988.586448 
100565.730844 14043.85646 5580.947177 
100159.054954 15126.299046 5383.57492 
100608.420793 13729.661562 5008.262066 
100770.567579 14726.645578 5609.61046 
101938.254817 11358.846549 5341.39042 
102262.356979 10310.278997 5300.530984 
102011.360638 11544.127312 5878.899055 
101669.258277 10462.191416 5222.621194 
102535.131713 9249.941183 5178.858742 
102740.138427 8189.36261 4974.204474 
102649.46251 9292.533762 5643.475615 
102220.264754 8200.384655 4979.140341 
102117.907015 11713.959108 6443.391828 
102494.935196 10516.904554 6335.151155 
102264.466956 11867.85451 7036.104455 
101792.588533 10629.564165 6283.201559 
102037.35609 9347.705064 5623.989628 
101715.558949 10558.121684 5741.468058 
101968.712109 9331.462763 5142.559774 
102360.559906 10425.051117 5806.928572 
100259.293392 17019.500604 7304.026295 
100826.228572 15860.181556 7535.739824 
100277.545116 17484.106641 8012.102221 
100041.577741 16293.781767 7293.195877 
101394.49056 14635.018369 7683.092911 
101946.750527 13347.236823 7729.430181 
101532.797332 14951.933336 8394.704697 
101089.642482 13618.8581 7585.610747 
100324.011023 17972.560675 8759.22287 
101017.827617 16672.498053 9008.969278 
100403.132494 18492.259701 9548.577829 
100078.97142 17155.761791 8740.07159 
100622.824555 15324.115989 8191.766982 
100046.002791 16712.29888 7997.451722 
100566.396979 14994.076237 7486.206016 
100902.823014 16257.444238 8251.136599 
101478.581137 12052.569654 6942.80858 
101017.921238 13390.292015 6928.447678 
101400.157559 11910.529174 6341.475242 
101798.23853 13118.094296 7074.317914 
100541.197033 14673.178029 6817.735327 
100061.099378 15893.356835 6624.438925 
100542.267617 14357.491405 6183.454346 
100781.863308 15475.398948 6859.022986 
101354.122946 11752.380775 5768.633907 
100967.042001 12917.351963 5712.322164 
101335.35737 11578.750129 5222.933706 
101620.052263 12638.811831 5864.821983 
101235.464092 14012.514801 6374.894189 
101691.693225 12882.314727 6453.588654 
101297.70545 14322.906054 7010.944152 
100978.783122 13156.911564 6304.783183 
102349.477309 7178.275765 4359.326305 
102165.574413 8225.414365 4556.391184 
102312.800221 7232.578788 3992.033328 
102651.308366 8184.379288 4570.207911 
101927.926896 9285.105088 4678.455485 
101648.929165 10343.753531 4726.360559 
101910.837405 9211.390152 4232.36634 
102194.648422 10174.176842 4815.913168 
102295.938139 7252.11409 3632.638605 
102125.097654 8178.404026 3749.151675 
102296.27158 7239.95896 3283.286833 
102545.886347 8085.274781 3795.643937 
102395.04719 9083.908233 4298.04664 
102587.674685 8148.827003 4176.746494 
102451.844388 9179.647617 4730.049153 
102134.993006 8217.060955 4145.888565 
101339.752238 11390.03838 4703.233249 
101010.039312 12415.14303 4613.80974 
101363.960757 11186.496082 4208.589301 
101560.219827 12124.930344 4775.591325 
100667.795175 13412.733311 4463.799949 
100319.417448 14378.746808 4259.353369 
100741.740146 13091.233497 3946.296573 
100839.363438 13984.627522 4484.104165 
101405.219793 10968.277961 3738.240995 
101122.305393 11875.958291 3621.729677 
101461.204667 10735.482565 3291.599469 
101585.779261 11570.142857 3794.791372 
101236.433486 12742.994112 4144.100551 
101563.905734 11852.979339 4272.192803 
101205.955029 13068.195421 4658.419466 
101058.707997 12150.575816 4104.985345 
102311.513203 7198.720193 2945.645976 
102156.212675 8019.894049 3001.290991 
102339.643854 7130.63163 2621.040856 
102516.62342 7882.420915 3075.710639 
101970.039252 8846.127225 3006.28696 
101759.354074 9670.749049 2961.381011 
102018.336484 8681.329948 2635.922019 
102147.563286 9437.874003 3092.382166 
102378.856116 7037.635128 2310.549222 
102240.239881 7765.691146 2319.355618 
102427.505069 6921.447921 2015.070837 
102544.424494 7589.529721 2418.219609 
102365.044896 8478.77949 2749.663441 
102524.40771 7746.511149 2738.792215 
102348.482565 8660.793684 3109.001177 
102192.595443 7903.947979 2651.768161 
101888.751735 10468.187828 3442.36363 
102132.199247 9649.083485 3491.305132 
101871.784176 10712.980943 3880.94544 
101708.38514 9866.965845 3370.083568 
102346.329221 8823.087566 3487.072208 
102523.043852 7995.866532 3428.277088 
102360.941859 8964.551375 3883.551318 
102132.996099 8111.977157 3367.323575 
101872.341212 10943.099272 4343.230347 
102152.815143 10017.982611 4352.941214 
101893.333495 11158.434633 4829.799973 
101650.708452 10204.323403 4252.369136 
101914.006269 9112.518078 3804.761539 
101671.414178 10045.08095 3800.356289 
101934.555921 8990.272401 3395.979276 
102133.055509 9842.682212 3911.454572 
102083.871136 2252.582325 820.610979 
101777.280981 1839.553211 582.194141 
101905.030207 2165.272797 880.747249 
101933.105134 1750.028985 632.408736 
101420.530726 1471.777361 348.342699 
101017.890876 1150.333437 126.535593 
101148.732121 1374.957733 367.128403 
101295.243651 1054.153779 178.041855 
101700.741578 2056.975826 931.185475 
101297.637437 1632.383959 646.476725 
101465.192125 1927.855563 969.02956 
101535.277257 1505.428089 717.316908 
101409.38559 1263.811878 427.97856 
101746.423047 1636.582261 680.150363 
101638.437468 1376.741499 400.483235 
101553.750035 1745.026695 619.410302 
100575.045479 875.17938 -76.018513 
100098.931269 645.161141 -252.64048 
100201.350601 786.553092 -77.449309 
100479.756182 557.548388 -208.568249 
99597.514518 458.078959 -397.41053 
99079.47739 310.807463 -505.357794 
99124.742724 389.76473 -393.775935 
99532.478448 241.291996 -473.739386 
99775.875314 689.955337 -83.808363 
99193.779064 481.313745 -258.078936 
99290.226211 587.674797 -94.719578 
99683.461549 381.909571 -209.355142 
99596.754978 306.170779 -354.138691 
100106.699075 471.047997 -207.709384 
100019.002468 378.731806 -359.197075 
99674.584778 565.603467 -254.805109 
101191.11749 1778.548678 991.165465 
100658.825609 1356.509919 660.714798 
100869.483032 1610.312042 994.340373 
101016.306333 1195.844824 749.104381 
100063.972266 1001.523241 360.189097 
99418.175691 711.541376 100.455436 
99582.015373 856.268166 332.448159 
99935.804147 574.296016 171.24686 
100489.11053 1425.209021 975.309125 
99786.375967 1026.082664 607.047011 
100036.202736 1226.340037 931.092168 
100313.866394 841.062186 706.262846 
100107.573233 696.492295 416.572175 
100693.071438 1022.273388 738.255876 
100506.929924 850.190977 441.084971 
100257.646926 1196.737931 643.323636 
99795.468023 470.497497 -35.685325 
100348.498518 703.685807 187.937105 
100215.801707 578.447207 -26.722058 
99904.538985 834.067344 119.624655 
100850.849098 998.213904 450.160295 
101294.191034 1357.851928 741.223014 
101149.018145 1136.98632 445.194518 
101002.111398 1502.421583 661.031259 
100583.785566 683.133342 -23.935648 
101020.181849 946.456828 190.508305 
100907.300207 781.697874 -27.349088 
100695.553314 1055.692491 132.224037 
100837.376298 1263.273679 376.398422 
100327.15815 949.635268 130.148582 
100478.828559 1138.119372 374.540134 
100707.035999 828.806014 194.156982 
98554.165273 199.493705 -572.464989 
98031.276568 119.593408 -595.898805 
97996.611689 156.682621 -538.238445 
98515.734133 71.389995 -577.812191 
97521.358783 66.374591 -574.302321 
97035.460698 35.219482 -508.726447 
96909.27098 49.074146 -487.680662 
97501.836773 1.284472 -499.434273 
97377.323215 116.53968 -489.35247 
96793.167355 64.683865 -457.987674 
96692.034052 81.985846 -420.183025 
97347.077523 15.692678 -445.545979 
97416.555017 7.982177 -476.453208 
97962.116359 41.700611 -521.005649 
98003.588402 27.295067 -561.899773 
97441.073921 89.722785 -537.542598 
96603.590838 26.771123 -405.653113 
96269.900563 36.767149 -283.297121 
96037.773342 48.030389 -273.846589 
96582.316888 -40.721572 -232.186009 
96050.157129 42.437476 -137.964132 
96234.382258 -58.394763 -30.135769 
95465.376928 87.031269 -115.036179 
95994.040491 -81.891117 -48.947437 
95953.672271 61.973779 -318.753609 
95761.010125 73.785799 -129.550109 
95375.796541 61.514438 -201.738723 
95183.972576 52.293698 -170.503912 
95924.981685 -36.240196 -254.115793 
94597.807859 77.358811 -32.870877 
95162.669541 -17.1974 -187.535288 
95336.678169 -73.297265 -138.069096 
94878.680549 90.859654 -65.507212 
95540.527415 -87.400754 -100.987971 
95171.580225 90.916646 -93.668652 
95763.796834 -89.48769 -73.204353 
96070.490609 -41.785889 -247.737243 
96664.6196 -9.315524 -352.211659 
96769.780934 -14.033605 -370.568475 
96099.523837 52.465599 -350.528963 
96404.955782 -42.384658 -239.66913 
96889.290913 -16.785606 -381.689358 
97019.981195 -16.366644 -388.733696 
96426.891635 35.491948 -394.002215 
96259.896623 44.731323 -375.800767 
95804.705559 51.415413 -255.17357 
95584.698386 56.713049 -234.125226 
96232.702052 -43.738449 -244.036762 
99494.071019 1018.168255 859.274259 
98572.366678 669.833721 474.875192 
98842.716121 806.745525 758.729158 
99332.107318 478.29641 572.702472 
97598.634823 411.450219 174.70105 
96602.56634 233.169919 -31.824289 
96711.967883 282.981516 108.110127 
97506.245616 103.53105 22.649802 
98060.545632 600.923968 631.350163 
96881.135734 341.94344 278.795503 
97125.844343 412.742112 485.251364 
97928.900569 162.831639 351.78745 
97684.54775 131.098076 171.430566 
98693.96514 310.886259 471.577576 
98447.237632 252.775001 249.976086 
97794.447438 497.325519 381.514467 
95642.451195 131.976718 -144.069365 
94798.540354 96.860863 -181.296927 
94700.559482 125.796363 -125.794163 
95582.717107 -66.278313 -100.31341 
94085.348141 82.111911 -139.248024 
94731.925849 -105.74619 31.583397 
93726.816525 179.416332 -57.345212 
94613.214805 -157.033175 -7.273249 
93894.677001 148.55971 -105.00575 
96068.784885 267.873183 350.938745 
94767.816811 172.725455 162.291531 
95030.152631 158.162436 305.803525 
95945.736131 -91.953746 58.980935 
93608.610151 191.319011 2.725761 
93565.442374 111.073731 152.562181 
95020.532968 -66.503005 345.793511 
94763.668674 -136.59118 -216.957418 
94661.343207 -111.003294 -170.47105 
93545.238975 192.398917 80.060441 
94567.412362 -173.980632 -97.717237 
94555.574246 -176.152748 -50.264024 
95756.940679 -74.366996 -2.291937 
97011.44789 34.679715 214.98275 
96784.574696 22.62365 85.942765 
95847.351567 226.774314 189.631907 
95584.894039 -73.291203 -78.903043 
96630.717591 11.330936 -14.662947 
96534.679518 6.877547 -96.640296 
95655.782507 162.221903 -53.851277 
95723.572619 195.043004 57.236735 
94651.239344 142.642539 -46.599714 
94667.387858 160.676081 45.771089 
95641.880668 -78.459443 -45.261556 
94331.497338 21.824236 8.285434 
95626.074965 -68.604262 -127.68059 
94993.234291 -11.010794 -241.241913 
94828.343469 -109.060142 60.280437 
96491.519735 -1.320203 -166.046708 
96495.70409 3.893555 -230.145811 
95683.915542 106.288359 -218.325832 
95803.412413 -38.632524 -248.133664 
96527.257099 -5.431272 -288.500277 
96580.940927 -8.781265 -328.021179 
95833.376417 68.543382 -280.916715 
95771.59771 87.494613 -251.439653 
95050.51656 29.295731 -124.153276 
94993.497365 62.788438 -242.470234 
95742.339658 -8.680488 -199.412469 
97383.614069 80.802737 -99.468253 
98258.772778 203.871716 66.042198 
98120.46554 163.47316 -86.520772 
97460.950926 339.537136 2.656618 
99093.189305 391.621987 319.713777 
99865.561786 657.537914 651.31625 
99641.035723 541.616959 375.974745 
99230.266789 848.6213 550.87455 
98759.306012 259.374858 -68.216109 
99458.520275 444.616682 144.217959 
99313.537622 362.747381 -50.093021 
98857.108863 585.339747 73.212311 
99020.454254 706.047014 291.185423 
98209.393376 459.543314 39.541729 
98364.14301 555.556402 237.666542 
98904.383479 319.14141 108.224961 
97296.943594 23.916339 -405.003461 
97940.064148 76.719518 -400.454223 
97939.618329 58.01485 -467.956016 
97333.963504 147.515676 -427.548296 
98579.277464 165.001716 -335.288389 
99201.877714 293.180284 -212.323056 
99119.550361 233.88524 -346.966703 
98648.211727 394.807213 -260.943369 
98514.559793 97.536677 -514.36409 
99062.839745 183.421005 -457.780493 
99028.429859 140.648848 -547.729742 
98561.805751 255.013716 -489.526261 
98592.182842 319.583737 -386.586643 
97982.12462 199.694041 -464.939364 
97992.034298 250.034104 -373.177274 
98534.660828 127.840213 -434.454393 
98734.93438 482.627282 -109.110955 
98028.88183 309.166033 -261.06443 
98099.318781 378.338736 -124.869083 
98652.634511 208.297837 -214.501175 
97318.784229 184.989599 -348.90354 
96613.612937 102.65364 -370.936988 
96567.194571 126.961057 -309.864538 
97272.758842 31.586177 -353.033409 
97375.245101 279.897347 -139.443732 
96541.676115 157.378831 -238.035207 
96549.325489 192.39402 -147.764905 
97310.201992 62.730933 -199.653442 
97274.046884 51.37681 -283.474359 
98025.161298 131.129176 -212.577174 
97966.807168 102.259433 -315.799298 
97327.211707 228.542473 -254.422712 
100523.423278 19053.022022 10385.454945 
101399.025525 17584.44816 10672.287477 
100690.665986 19665.339209 11272.675321 
100253.572735 18153.521023 10356.519016 
102302.789499 15974.566819 10814.040755 
103189.638108 14225.148341 10763.756246 
102730.584447 16360.048694 11737.374988 
101866.763912 14521.146066 10615.662705 
100921.844821 20346.386976 12218.793145 
102068.131959 18674.757212 12576.850243 
101214.522268 21111.043511 13221.091607 
100635.749864 19392.68723 12177.694591 
101317.383088 16857.428507 11470.542847 
100410.972749 18733.026632 11240.14993 
101051.13987 16424.828026 10571.869778 
101690.37933 18100.762036 11590.889545 
103992.548309 12354.968308 10475.240688 
104619.395595 10404.571081 9911.572541 
104676.117494 12376.068781 11267.910901 
103377.927428 10306.231899 9998.100095 
104965.073452 8438.607573 9060.030381 
104928.888436 6540.043732 7942.972545 
105657.096809 8044.156987 9455.346139 
104254.289273 6069.326335 8240.173758 
105556.055698 12357.187196 12095.884727 
106285.859918 9933.170428 11142.939458 
106696.441015 12284.470128 12953.674571 
104747.898643 9663.324028 11338.879176 
104583.397249 7632.705595 9725.876961 
103975.728152 10041.43713 10672.370243 
103939.203488 8137.26394 9263.483151 
105357.31911 10212.44599 10539.161565 
101621.816497 21990.741752 14305.872133 
103204.286762 20081.184765 14805.005754 
102116.403648 22994.863262 15439.867866 
101343.654537 21063.981588 14256.404637 
104969.46159 17812.6161 15025.597318 
106730.273884 15143.94599 14763.841864 
106223.530585 18466.764186 16354.099244 
104293.864885 15560.111699 14567.891608 
102873.937999 24285.186769 16708.833439 
105132.150457 22068.850866 17460.854946 
103610.348419 25532.278978 17888.633662 
102634.734919 23476.485193 16612.913044 
103595.702182 19422.975316 15835.60016 
101864.520783 22155.216032 15417.978724 
102754.221044 18580.914048 14612.385064 
104064.319224 20987.906355 16084.958685 
104672.644098 12280.241119 13001.146736 
103413.710929 15266.676107 13464.594487 
103815.243337 12404.034647 12106.447764 
105458.472622 14899.738928 13639.2625 
102139.696709 17908.841051 13477.759466 
100927.496562 20154.265883 13186.907267 
101668.897308 17343.950899 12436.903152 
102565.396698 19327.733587 13646.557104 
103162.337488 12458.752565 11251.951671 
102249.460872 14756.302151 11497.893785 
102661.165458 12463.572209 10439.690679 
103757.969017 14444.191081 11651.540151 
103287.589438 16784.153945 12736.751074 
104494.334857 14667.686078 12605.930857 
104011.76351 17260.22689 13825.004023 
102753.242184 15003.006041 12443.548502 
104435.297361 4797.481523 6621.406936 
103451.315042 3289.567529 5189.182055 
104648.87417 4152.551183 6456.004155 
103798.1653 2673.740056 5550.47514 
101996.502395 2072.158463 3759.433796 
100148.246131 1171.910518 2448.312862 
101321.108014 1496.261588 3184.404897 
101577.764265 677.112799 2703.402024 
104744.557341 3408.029869 6054.834628 
102788.350572 1947.460143 4128.577354 
104600.60257 2584.87767 5346.442801 
104086.830514 1219.62057 4511.468081 
102727.625334 897.165061 3497.038542 
103990.150219 1956.707635 5167.429608 
102911.905826 1491.741486 4084.747697 
103249.998078 2637.691667 4778.94468 
98062.78084 596.922104 1354.911976 
95955.868986 324.464092 537.355981 
96686.307997 410.894704 806.130196 
97849.145946 -109.555819 686.780285 
93992.790099 261.955903 10.464087 
95777.807231 -259.147133 234.288748 
96469.923088 -341.163367 206.308864 
94472.237776 347.720682 147.129008 
104164.007119 1785.005984 4318.954487 
101016.149847 855.584544 2280.449374 
103742.228365 1126.028615 3151.245783 
103482.398634 -112.620156 2155.049744 
96191.248694 501.437823 527.045541 
102292.882462 -514.261314 366.485348 
105683.55491 218.12476 1870.066755 
99747.048154 486.130623 1156.047399 
100507.200196 -375.833289 110.998927 
97647.850475 576.029246 826.908315 
98768.469257 -445.503265 129.305602 
97427.622019 -405.579114 163.978071 
95171.760805 432.422416 314.349002 
101559.058985 -140.325397 1573.227582 
103975.283221 522.564424 3516.381778 
102300.041143 339.216704 2659.696955 
101993.748561 1306.60914 3252.608424 
98780.643822 -127.075024 891.605354 
100944.724071 234.569574 2021.673063 
99847.484552 172.080786 1534.279811 
99058.122885 764.181591 1835.394506 
100343.090474 991.548658 2450.225447 
97711.956644 514.736545 1166.031988 
99092.538096 649.299785 1632.805683 
100006.675805 -143.829089 1178.341524 
104831.911079 27084.558482 19278.778025 
108687.941179 25074.697764 20720.586577 
104368.033748 27889.627583 19450.380981 
105162.176397 28076.607416 19424.312248 
113967.238642 21912.741989 21763.523559 
119548.12108 16453.235292 20701.497666 
118886.409538 23423.205507 23917.064918 
112686.744935 17464.353906 20182.291468 
111657.907811 33497.372343 23329.008931 
108041.850743 28200.704547 21076.829083 
111651.587177 25961.034259 22113.780634 
108315.397834 23834.10311 20387.652256 
112031.544135 28162.650814 22893.135606 
121204.22393 9462.749747 15600.968425 
116365.067062 3856.675121 8130.352097 
126532.046351 7544.604373 13554.54763 
118545.197159 857.609628 9536.004659 
107522.206038 1269.336208 1851.721058 
115811.470682 2555.397318 3760.232948 
123614.201402 -1695.983569 4186.629106 
114850.792477 -900.28408 2318.444113 
182986.241549 21518.209629 28880.10834 
133900.026647 -4642.632855 11738.070521 
133167.486735 5753.422126 8687.332677 
144221.01468 43266.304404 34324.294339 
116163.680518 29130.473018 24276.278957 
124613.042937 37383.912881 28632.123246 
116192.318264 29213.549369 24124.761718 
123783.610743 3545.478048 15706.824061 
117488.660856 18743.870875 22157.544037 
116853.271553 7505.831441 16889.382457 
128333.669067 16914.818714 22768.447894 
127507.06704 26373.447569 27010.941358 
143082.324356 17383.533195 24632.125613 
132645.767917 27023.407459 26264.404063 
126308.880006 24362.672979 24604.702701 
113443.342559 328.492563 6200.691391 
102703.125052 438.56892 969.703546 
109144.144372 -296.415528 1819.333267 
114368.049941 3597.14567 12008.917991 
111311.67979 1992.714669 8631.19691 
114946.686639 5621.945404 10800.298366 
106112.032144 284.676333 3191.596744 
108509.790895 1177.188204 6335.700148 
106006.904882 846.632461 4685.781532 
106797.694103 2442.931773 5665.398671 
110159.790301 3549.694353 7710.284734 
105366.160054 1259.721106 3585.232536 
109681.216683 2115.278275 5208.730218 
109371.115297 278.565729 4406.551091 
112482.961629 9792.042636 16562.068223 
109282.233764 16822.795281 18623.223243 
109426.166848 10983.626106 15822.17187 
114355.68092 16075.012561 18978.386024 
106262.27637 21992.528549 18696.040199 
103496.645687 25153.525779 18002.709795 
104652.833707 20470.2848 17221.062496 
106691.96947 23388.331373 19045.867052 
107330.377532 11658.444259 14887.138864 
105450.785353 15890.908818 15786.420406 
105802.387415 12050.892209 13935.286185 
108456.666424 15411.165896 16009.115155 
107959.627845 19282.613905 17877.25636 
110841.528395 15698.997072 17390.399927 
110320.539961 20288.004534 19596.335512 
107062.862115 16302.113508 17114.083732 
105665.415319 1712.025542 5822.468721 
106464.604827 3565.382176 8203.598267 
105186.651132 2615.659671 6516.188314 
106500.234159 4474.684233 7660.863607 
106428.27587 6111.348739 10337.110985 
105749.343707 9127.477339 11972.170782 
105397.700016 6972.64066 10105.201341 
107455.900893 9537.313067 11688.552153 
104691.857795 3465.460219 6866.774551 
104861.243918 5391.306948 8430.842145 
104231.988771 4217.041459 6973.899169 
105448.134302 5985.82627 8061.401108 
106484.740804 7528.095531 9748.028371 
105994.404275 5303.07147 7997.542231 
107450.07759 6856.169032 9867.867329 
105594.72956 4561.29364 8450.74396 
108195.224246 12136.918684 13830.75532 
108925.269885 8979.245576 12111.939512 
110185.353844 11874.707907 14693.82358 
107063.953508 8366.14533 12520.886505 
108525.612505 5987.430756 9700.638001 
106844.862183 3504.189448 6927.501302 
109564.50889 4879.584657 9067.06131 
107452.434292 2410.715521 7549.801969 
112873.860556 11443.650786 15470.07285 
112861.860372 7094.906669 12014.009604 
116466.170513 10711.567241 15918.330452 
111171.38674 5754.191307 12855.103172 
109365.121868 3587.077934 9846.535054 
108807.657786 7281.761585 12891.489384 
107728.998831 4991.582886 10314.007504 
110745.38295 8197.404048 12299.355415 
95325.198706 -125.552739 295.190376 
97142.945669 -77.486146 530.261388 
93698.927912 108.274297 -80.679742 
98975.573037 134.145253 1152.922229 
98280.870978 102.981318 853.919044 
97299.545964 473.935524 986.318709 
96298.763508 8.461132 221.317108 
97757.901625 77.07578 608.76273 
97332.139685 62.764346 382.34447 
96395.015899 314.567599 507.855725 
96744.934292 376.989124 700.256367 
95149.492455 147.892177 156.085922 
95432.511458 238.376857 326.433552 
96630.202092 -63.546777 403.418438 
100619.029468 521.97383 2077.096198 
101965.887344 1157.930817 3211.948672 
101150.23565 909.926582 2504.59753 
100955.50718 1649.112804 2940.795417 
102958.211954 2092.043263 4460.326412 
103574.260775 3334.931702 5725.41448 
102929.657089 2663.68173 4664.096262 
103493.17705 3875.52227 5403.12062 
101516.61385 1325.536408 2809.200251 
102323.359756 2146.583982 3765.403959 
101769.038419 1743.33715 3005.694812 
101894.26441 2584.175179 3512.580439 
102643.781593 3154.036614 4376.471332 
101516.340645 2128.224095 3290.355897 
102407.973554 2633.634045 4147.951236 
102194.575693 1656.689218 3557.914894 
98250.903544 206.408243 572.166935 
99399.799826 472.28878 1061.632388 
99007.798284 382.242877 739.000972 
98408.456349 727.644429 933.033949 
100417.416625 871.445365 1668.625042 
101273.002845 1425.317898 2363.989752 
100836.803532 1171.020189 1822.142324 
100685.047699 1763.759161 2174.134416 
99627.715063 583.229124 875.128089 
100459.135826 965.153642 1364.452481 
100136.748743 796.629953 977.797863 
99819.135251 1221.133942 1225.258949 
100213.320729 1465.936725 1659.231113 
99185.220362 972.411777 1098.67048 
99609.894291 1174.169621 1505.080972 
99987.16493 712.051916 1236.476789 
101243.263938 2129.785034 2785.674289 
100131.571551 1422.988816 1992.881626 
100762.267792 1733.996814 2581.040849 
100925.375586 1070.151499 2186.779444 
98854.875509 883.853917 1295.223962 
97470.364299 502.25121 733.596255 
97908.765814 608.478968 1026.60244 
98667.456752 259.239292 842.697438 
100104.548938 1326.993725 2277.855156 
98476.584658 745.159323 1404.452176 
99207.707039 931.649032 1865.771898 
99829.306649 406.188932 1580.277854 
99184.708824 319.074927 1173.666563 
100458.840746 722.346904 1926.883599 
99879.127256 581.472713 1452.126894 
99411.707339 1077.902871 1736.873478 
103826.791936 4862.049954 6912.448117 
103757.997359 6617.232448 7941.209799 
103480.684248 5405.470579 6735.684222 
104463.802473 6985.424269 7704.785193 
103430.094437 8521.372302 8756.079951 
102913.608104 10486.512945 9331.038229 
103028.504666 8810.664751 8227.286623 
104032.606602 10529.746259 9280.269203 
103191.387242 5857.265373 6480.97866 
103032.86841 7403.815535 7167.169309 
102953.876264 6228.166158 6174.592637 
103719.267318 7616.865547 7024.191859 
103926.530745 8958.145975 8118.921985 
104060.896685 7339.511104 7388.976191 
104393.910525 8736.943831 8605.430443 
103355.899807 7056.042848 7574.586327 
102276.567891 12431.222362 9667.921193 
101576.099808 14292.759873 9789.56582 
101982.419643 12369.612617 8934.692725 
102749.651448 14008.167777 9934.135478 
100855.959892 16032.322148 9729.637272 
100145.170095 17632.384714 9525.29455 
100716.506425 15668.093883 8938.177266 
101179.900359 17112.123654 9814.245474 
101760.223825 12283.950833 8237.506552 
101200.466036 13844.162344 8279.123445 
101595.838808 12177.531089 7574.221937 
102146.33533 13570.989195 8421.902376 
101721.799408 15277.476129 9150.051957 
102408.760026 13790.747283 9155.31684 
101973.163925 15616.30714 9954.253609 
101358.977106 14068.068407 9012.358463 
102762.344323 6528.234269 5835.048251 
102574.358742 7882.284871 6295.829037 
102611.079079 6766.322975 5475.515885 
103199.651664 7985.925405 6219.805612 
102279.855428 9274.809869 6634.099417 
101906.277543 10673.889801 6848.04044 
102138.961373 9330.325144 6121.702685 
102672.542241 10583.765912 6885.059259 
102494.843162 6949.981079 5105.449789 
102303.157754 8138.184573 5412.068653 
102408.991685 7085.540137 4731.709647 
102858.045786 8160.656492 5386.273757 
102800.338071 9304.599676 6122.44016 
103009.510528 8094.427806 5803.038337 
102994.438097 9282.549389 6613.591276 
102419.191827 8034.112196 5852.309413 
102459.382737 12005.075551 7658.443041 
102902.236088 10622.886765 7456.167522 
102713.342013 12124.50352 8311.939412 
102064.130105 10687.566775 7435.999028 
103239.896095 9221.769202 7113.703746 
103434.191862 7829.218142 6629.979901 
103546.602135 9116.261292 7617.927629 
102775.955669 7675.301115 6736.878434 
103040.26032 12224.480153 8998.217644 
103565.856323 10601.836932 8656.674528 
103458.411396 12302.523953 9718.83934 
102553.484262 10601.893264 8679.121266 
102713.263077 9024.006706 7691.744368 
102275.725551 10665.78198 8046.713641 
102467.954816 9175.282524 7158.716672 
103195.235528 10630.581547 8047.39984 
100557.639827 1013.234934 1047.280169 
101154.543432 1466.491946 1490.955347 
100908.575041 1225.389212 1085.797542 
100761.814317 1693.813479 1363.38513 
101645.654421 2021.230285 1963.475547 
102025.05939 2677.11983 2444.866168 
101823.325554 2264.856006 1929.38844 
101909.707493 2901.407252 2312.954766 
101204.067286 1427.281513 1096.647722 
101632.547174 1914.15522 1477.677333 
101455.616081 1614.627451 1083.572029 
101405.341093 2098.194154 1372.380975 
101645.086901 2469.278776 1810.783469 
101112.84604 1906.292091 1381.815768 
101390.432239 2252.788542 1830.310794 
101414.152848 1699.498585 1499.109214 
102291.641364 3429.384077 2915.299997 
102448.774523 4269.107242 3356.331446 
102343.044129 3657.171759 2772.643609 
102595.579444 4442.511009 3249.106251 
102503.679127 5183.928574 3751.949244 
102466.535955 6159.027274 4089.343646 
102485.218349 5345.083527 3490.468846 
102820.121796 6238.737472 4033.701266 
102391.22229 3848.177057 2609.851593 
102473.488507 4630.710589 2938.030238 
102438.674677 4003.893681 2433.031976 
102656.080651 4731.03826 2873.823576 
102748.920127 5438.619498 3428.533085 
102627.420778 4605.093921 3068.910648 
102762.551276 5315.029752 3667.598282 
102458.201038 4469.555866 3153.930965 
101672.289092 1784.468842 1050.399186 
101981.180893 2277.860416 1366.472826 
101861.21213 1934.862455 1000.835911 
101861.002606 2413.513887 1287.80962 
102219.217849 2835.726523 1678.249996 
102386.967659 3453.790844 1975.058772 
102323.482651 2970.776446 1562.69849 
102434.470882 3553.236636 1914.3806 
102027.966299 2064.652497 938.344867 
102252.363411 2546.398076 1193.872617 
102176.904586 2173.286454 866.087418 
102198.707172 2633.788742 1142.668493 
102316.44309 3065.113443 1506.294492 
102041.414944 2535.538505 1220.966059 
102184.842633 2956.732885 1606.463229 
102124.181306 2424.240827 1285.857363 
102549.246078 4105.716419 2369.528213 
102332.881415 3436.218804 2040.802763 
102482.025721 3982.455312 2527.327892 
102309.697106 3307.219847 2118.659694 
102033.351941 2821.547958 1693.602479 
101651.510575 2267.609091 1339.607442 
101856.022788 2659.073941 1763.361038 
101819.146721 2107.530555 1431.861004 
102404.727808 3825.833566 2670.151669 
102077.198941 3111.100623 2245.681759 
102312.186784 3634.211149 2792.038459 
102132.772197 2919.31486 2359.434025 
101973.721188 2482.592384 1866.558039 
102226.079498 3129.301234 2248.574471 
102103.929355 2673.045272 1781.070936 
102215.69465 3289.170592 2152.954434 
102860.265003 7142.33689 4687.635934 
102878.910392 6124.368001 4324.127694 
102965.683421 7046.246325 5037.278004 
102519.215178 6005.504138 4403.380555 
102781.381013 5151.822993 3892.9548 
102556.345901 4240.856065 3407.700907 
102802.670327 4945.647299 4097.299509 
102443.900179 4026.88688 3538.484371 
103097.462853 6907.109074 5380.306196 
103041.10605 5765.510659 4864.152697 
103257.776672 6719.658176 5709.277428 
102691.75325 5554.743732 4998.276935 
102580.970191 4728.688057 4232.301759 
102593.531839 5805.741051 4708.784155 
102535.505347 4979.684516 4001.621326 
102952.785151 5968.071258 4603.480598 
102197.166643 3406.219275 2885.823925 
101702.918893 2660.10543 2347.788606 
102049.586814 3140.993982 2942.953546 
101896.341158 2403.467657 2497.362239 
101078.960259 2011.172301 1815.843191 
100336.929164 1463.869169 1312.559337 
100693.771422 1747.311294 1760.936863 
100841.482086 1219.578302 1447.812438 
101855.467214 2838.537584 2953.330892 
101111.880184 2087.901754 2287.458062 
101595.472085 2500.258661 2905.279296 
101535.537074 1772.104078 2467.383145 
101167.244603 1468.721269 1917.453787 
101737.423714 2100.450309 2508.185481 
101431.200571 1754.37769 1961.983122 
101443.073515 2388.151464 2342.229504 
103448.036816 6477.59947 6014.070165 
103249.990658 5201.448234 5286.359594 
103667.988842 6173.474209 6280.810429 
102967.657784 4876.336037 5487.552 
102818.800403 4033.97686 4478.130726 
102147.069988 3003.402465 3629.465313 
102765.979514 3622.035401 4477.016617 
102391.10277 2608.317409 3860.92127 
103914.107462 5798.614486 6490.348106 
103447.039984 4388.230822 5466.31842 
104176.758419 5343.31186 6616.134225 
103351.698671 3923.918281 5746.814015 
102865.089856 3189.045906 4734.417298 
103147.043197 4436.988727 5656.944988 
102787.32251 3659.221078 4703.516732 
103357.010371 4828.780146 5417.381856 
101944.967375 2145.165653 3110.41712 
102423.339248 3030.813208 3867.897764 
102070.107924 2519.518925 3139.83358 
102315.355648 3379.794089 3661.062104 
102709.68302 4071.620042 4596.966321 
102815.9606 5246.937935 5262.183854 
102639.607653 4427.182669 4434.73713 
103141.730519 5511.778493 5096.163121 
102162.146541 2860.126698 3108.849747 
102441.174778 3740.662135 3691.944494 
102233.222884 3163.779341 3030.379597 
102503.441339 3997.775916 3536.407698 
102821.774788 4692.953019 4271.347749 
102427.617556 3711.21656 3625.020832 
102831.142161 4390.157513 4403.288154 
102436.526846 3408.793201 3806.1427 
107022.988828 32106.896649 21134.664559 
102195.039616 28161.749364 17775.17118 
104059.489145 31217.846743 19351.089923 
102276.298043 28435.927722 17982.993516 
101494.223152 26967.420119 16876.889933 
100829.676127 25600.082179 15794.88983 
101676.11765 27640.029118 16910.04839 
99907.965928 29972.389779 15860.8591 
98137.865496 27737.429932 13728.318493 
98901.911294 29670.573388 14740.971985 
98169.826394 27848.036409 13916.318595 
100446.501488 24306.063754 14701.939075 
99082.572868 25807.295347 13954.412909 
100050.877485 23058.628786 13696.360966 
100539.495379 24619.706742 14671.822841 
99345.193983 26963.699879 14722.193209 
100889.016202 25796.324894 15700.102139 
98682.717569 27461.533398 15024.308968 
99571.907046 27596.469309 14868.00662 
97275.033674 29182.510102 12243.734531 
96419.354084 27573.776673 10597.006431 
96821.865149 29046.559545 11379.770656 
96430.139548 27614.556817 10761.751329 
99847.723353 22045.2621 12688.123983 
98850.77476 23614.38313 12100.57455 
99669.626653 21159.730978 11757.747477 
100030.684668 22654.819754 12662.579328 
98032.857836 24999.665164 11420.251088 
97181.467943 26049.986997 10779.243642 
97995.34063 24002.509031 10642.61139 
98067.80617 25125.244538 11338.386072 
99562.977502 20391.53469 10862.285483 
98772.033609 21849.634065 10391.242949 
99493.240046 19707.555133 10015.882271 
99766.080089 21068.570145 10838.418663 
98935.281466 23119.565651 11157.51398 
99866.013135 21814.303186 11723.719031 
98957.839961 23970.858307 12005.896135 
98806.168421 22688.414375 11223.098027 
97149.19527 26928.763958 11368.055861 
98019.918607 26047.141177 12126.565097 
96496.618353 27293.669204 11683.200384 
97317.09155 27386.10063 11486.816934 
99096.512608 24991.570611 12922.870743 
100207.851223 23581.952368 13622.586513 
99117.8732 25922.691878 13759.981245 
98992.164626 24649.558278 12974.568129 
97826.144128 29347.843239 13157.129164 
96984.303643 27344.05896 12576.49691 
98076.04166 26917.176034 13073.509038 
97992.403424 25955.514791 12254.078861 
98233.092297 27405.757709 13019.87178 
101230.519161 30369.155748 17078.248457 
99823.405876 27611.888651 16150.13439 
99463.582633 19091.984846 9209.862129 
98817.336787 20418.061021 8814.663148 
99460.557606 18528.291437 8445.198662 
99664.556971 19761.896605 9189.354888 
98214.933126 21626.440235 8359.67341 
97646.480497 22728.652838 7867.984327 
98311.700876 20953.006107 7652.343082 
98329.289861 22007.680514 8285.329082 
99482.845029 18005.894145 7716.907736 
98940.460447 19207.613105 7368.961865 
99525.704653 17514.889156 7023.302905 
99671.065998 18633.297413 7697.080664 
99024.142107 20301.953875 8026.932871 
99656.113368 19180.143339 8424.793726 
98970.782484 20929.539461 8760.72939 
98870.89527 19791.128505 8075.899043 
97133.5591 23745.478041 7339.104083 
96635.661127 24672.938858 6808.806885 
97294.267169 23018.185505 6696.303689 
97191.272547 23936.69952 7244.65255 
96218.096808 25574.322124 6244.152996 
95730.124061 26314.095801 5726.502721 
96386.126942 24808.370457 5665.890113 
96224.397971 25604.251209 6156.258479 
97471.154785 22334.369035 6061.28325 
97026.898861 23243.853036 5574.776603 
97647.988411 21680.247887 5445.077703 
97539.734004 22563.038953 5972.184192 
96884.225035 24098.368852 6084.764355 
97358.615571 23232.50484 6598.418981 
96672.817559 24796.268613 6694.52901 
96839.151387 23947.133043 6181.483816 
99586.756179 17047.859825 6361.952552 
99123.954047 18137.250942 6042.749079 
99663.281199 16598.597793 5731.162937 
99756.695595 17614.32454 6342.222439 
98676.49373 19164.753563 5677.508513 
98245.668527 20134.855698 5275.703502 
98815.866579 18621.287591 5068.201821 
98789.529641 19541.540322 5619.361042 
99753.614094 16162.104863 5129.184952 
99354.026905 17151.041514 4826.234268 
99856.206304 15734.119122 4554.7105 
99902.384973 16658.007796 5109.658994 
99366.0942 18077.541585 5381.990853 
99822.912669 17130.702693 5711.452612 
99263.620798 18602.806774 6001.388585 
99233.759796 17636.426878 5421.325284 
98178.319643 21040.310199 5817.072834 
98661.955377 20118.627303 6249.099266 
98024.434065 21666.474601 6449.324932 
98086.776002 20735.15894 5892.225741 
99171.747475 19144.932972 6647.972247 
99705.250613 18113.375684 7003.420506 
99090.910198 19709.112123 7322.46548 
99025.955113 18658.958515 6691.396072 
97878.178516 22320.369217 7102.784794 
98429.309448 21345.037048 7580.680388 
97729.175677 23004.285677 7771.778293 
97789.891597 22026.192655 7186.29662 
98424.424049 20324.255538 6968.450244 
97933.345092 21362.847219 6530.039794 
98545.430371 19730.210329 6310.970943 
98542.576858 20718.088087 6903.206562 
95366.441764 26962.082801 5145.299711 
95596.795584 26354.408946 4591.055881 
95488.326602 27302.913851 5069.291985 
95096.74123 28529.022369 4551.065541 
94897.751101 27483.109676 3398.479242 
95028.019131 28508.405739 3943.737725 
94894.936672 27480.466175 3526.649032 
95880.656953 25718.400178 4020.931294 
95461.422772 26381.522728 3532.091801 
96082.779626 24994.580975 3490.434008 
95878.238659 25719.229124 3936.689276 
95242.059458 26995.292439 3944.957374 
95608.040578 26388.340882 4478.948258 
94678.408364 27241.471047 4221.942179 
95354.116653 27298.933926 4026.466615 
94929.578603 28478.873581 2410.760822 
94792.053971 27484.712968 1307.337321 
94894.263529 28468.279059 1829.838011 
94788.498274 27480.467616 1432.307633 
96351.308829 24321.64671 2934.834427 
96004.397217 25051.782678 2439.797355 
96597.387134 23649.54751 2403.867395 
96370.359355 24383.893586 2839.060521 
95714.816955 25801.119118 1916.29103 
95338.692909 26423.469223 1439.385294 
95943.249756 25093.282546 1413.571507 
95706.089102 25780.710185 1833.346268 
96857.638394 22991.760086 1874.625933 
96537.195547 23715.394804 1388.669358 
97116.148058 22337.36083 1358.228616 
96875.249169 23050.545356 1780.597214 
96290.927858 24427.208729 1810.65558 
96616.316649 23712.439105 2302.647602 
96015.693983 25088.68576 2329.519111 
96279.108973 24386.830257 1905.895008 
95097.965469 27009.8006 1834.276309 
95414.243368 26430.714875 2347.287219 
94544.783411 27250.92651 2105.000197 
95206.091718 27304.498194 1911.546891 
95790.909974 25800.830401 2877.674028 
96100.149475 25052.334645 3370.704217 
95470.081509 26406.964441 3377.63071 
95763.980641 25721.026629 2959.757311 
94959.267059 28487.780118 2998.206276 
94573.649204 27245.364068 2710.19518 
95152.728851 26989.257052 2980.393472 
95409.402576 26416.104421 2456.245069 
95268.4819 27309.279075 2905.968171 
99969.83702 15311.075375 4006.642836 
99622.673837 16209.198789 3711.591339 
100093.422435 14889.938101 3484.146684 
100095.648208 15730.446002 3988.127706 
99280.480165 17073.850481 3379.660727 
98944.881695 17906.678267 3015.792483 
99449.333979 16572.329514 2862.280497 
99366.698265 17361.244148 3333.44405 
100226.054866 14468.120242 2986.589978 
99924.088415 15282.761641 2693.877584 
100366.901198 14043.397103 2513.56568 
100327.630233 14806.704798 2970.339383 
99864.338356 16061.406471 3159.392005 
100207.258797 15269.392642 3466.580311 
99727.81723 16559.676764 3678.003223 
99769.581477 15745.550207 3190.816128 
98616.933465 18710.01291 2624.291751 
98296.89156 19486.545518 2209.075258 
98825.293985 18145.305377 2116.019036 
98670.76989 18889.467649 2558.754756 
97984.967691 20239.41611 1773.29214 
97680.196722 20971.69275 1320.07282 
98227.089206 19625.789765 1273.820706 
98013.673509 20335.10277 1694.353916 
99038.897807 17582.232193 1627.321069 
98753.913162 18305.932426 1219.839709 
99257.750359 17017.919782 1158.856722 
99077.269314 17710.137217 1569.872137 
98556.708823 19008.428069 1636.645976 
98871.929134 18300.755873 2054.408829 
98337.274535 19621.155438 2136.149428 
98522.924869 18895.814843 1705.387659 
100515.175427 13613.864489 2064.868374 
100253.715708 14350.115775 1771.041102 
100670.093278 13177.90181 1640.487005 
100591.442103 13868.086744 2052.545045 
99993.545085 15067.587429 1445.820669 
99735.956559 15767.062296 1091.815098 
100186.279667 14558.09811 1019.797542 
100039.193138 15219.747607 1413.227328 
100830.841818 12734.150191 1240.592228 
100606.916925 13395.115158 943.969374 
100996.540891 12281.49935 865.528126 
100880.834815 12900.793515 1234.260345 
100475.891372 14036.906784 1325.849901 
100733.337426 13388.715635 1630.875739 
100314.235151 14551.847249 1747.914641 
100427.690114 13876.235922 1345.367139 
99572.292453 16445.606409 1495.006034 
99863.014721 15761.067397 1858.702253 
99381.463367 17012.285457 1961.429128 
99529.938292 16304.425872 1540.324614 
100158.057765 15059.687025 2194.344677 
100455.948755 14340.222292 2499.045414 
100007.917114 15562.190639 2664.86651 
100085.652961 14818.337676 2220.611151 
99195.357128 17575.24165 2449.586671 
99526.478395 16829.477566 2819.076383 
99013.992245 18137.046768 2959.000072 
99134.267219 17371.60862 2502.747784 
99624.689266 16072.508814 2367.412035 
99329.311894 16838.447211 2010.81168 
99806.207072 15571.708569 1895.172182 
99692.0107 16296.913595 2327.437426 
97451.74298 21684.489065 1742.351559 
97780.77754 20967.66568 2205.402056 
97205.951511 22333.931557 2261.160368 
97428.444719 21606.821547 1830.012427 
98121.507681 20233.814168 2653.210507 
98473.46682 19479.143248 3082.242845 
97908.433145 20849.402526 3186.780247 
98075.771752 20081.361203 2730.009492 
96965.331919 22987.875624 2793.452787 
97322.657381 22240.898108 3270.953255 
96719.405891 23645.730514 3333.168473 
96937.331669 22894.688296 2887.272124 
97514.428402 21478.763919 2818.189059 
97179.632318 22246.202672 2353.608629 
97747.227518 20855.831777 2288.583463 
97551.419474 21602.051734 2731.653849 
98837.466306 18700.577389 3489.394279 
99212.860408 17894.985084 3870.475408 
98665.592796 19268.924487 4040.438238 
98761.333973 18446.802936 3549.656083 
99598.881292 17059.682972 4220.975944 
99993.677732 16192.357215 4535.550099 
99478.055424 17564.469907 4788.743454 
99483.954284 16676.592948 4256.542429 
98498.537831 19845.669348 4612.127243 
98923.884772 18981.348179 5013.074892 
98335.579417 20434.557801 5204.051573 
98411.863749 19556.756231 4679.453575 
98963.461765 18094.624698 4482.312882 
98583.557348 18995.473005 4104.274723 
99118.39925 17580.114561 3919.617482 
99065.230506 18433.853799 4430.301424 
96489.520606 24317.075357 3891.649261 
96872.138943 23545.507746 4388.374013 
96240.577958 24986.188693 4444.789348 
96463.288231 24228.539595 3987.955554 
97287.126079 22749.184805 4881.959426 
97718.304495 21914.627412 5358.032875 
97077.068271 23410.980946 5472.034619 
97234.45795 22573.708514 4973.333892 
96043.240322 25718.22422 5030.898017 
96415.173838 24905.17737 5543.075746 
95739.998279 26344.036978 5565.237938 
96007.487048 25609.35245 5114.657153 
96622.909231 24106.848521 5063.473414 
96217.041836 24908.170941 4557.583722 
96834.223958 23419.100845 4489.667821 
96658.277776 24223.211212 4968.294936 
97833.632462 21053.376171 4844.17672 
97437.27094 21924.912268 4391.129883 
98021.803411 20446.889296 4262.244807 
97903.714789 21286.976765 4763.309117 
97060.117611 22757.300782 3918.847646 
96691.279058 23552.079136 3436.499824 
97283.590399 22110.701332 3362.944658 
97099.565376 22888.896878 3825.602579 
98215.41451 19857.155735 3697.756926 
97858.638757 20683.421254 3267.958228 
98413.556176 19279.441105 3151.746055 
98280.174039 20073.021431 3624.581087 
97699.127017 21471.651271 3736.994018 
98090.01356 20674.255363 4184.886676 
97490.685982 22102.957483 4301.493025 
97646.67669 21296.80975 3821.47919 
95164.633661 28549.390098 5167.741607 
94742.185779 27239.995768 4854.46748 
95536.472002 26969.659132 6172.463716 
95983.690548 26317.973625 6744.615939 
94952.039082 27233.770862 6459.81344 
95657.457725 27296.46306 6260.063867 
96515.704375 25572.745074 7340.547554 
96998.516525 24666.344707 7890.546727 
96250.143624 26253.751172 7930.7564 
96468.781652 25426.236894 7424.383894 
95564.827597 28669.448279 7499.766535 
95075.701083 27234.168736 7143.379705 
95775.928507 26929.985579 7466.037762 
95969.096897 26270.380968 6863.434147 
95906.375553 27302.115221 7391.924861 
97603.02181 23730.820382 8469.629213 
98233.881642 22709.210445 9009.962951 
97461.378368 24486.194205 9167.399685 
97529.117686 23483.70559 8560.615623 
98937.737137 21602.219317 9527.26942 
99697.103084 20387.096184 9991.615145 
98915.027197 22326.207258 10320.729528 
98787.442452 21101.310426 9583.174379 
97391.645424 25350.131627 9912.729858 
98075.245064 24268.961268 10523.824563 
97203.522722 26120.772518 10592.803274 
97325.829631 25139.935756 9992.348958 
98068.071312 23146.0189 9845.827372 
97400.561248 24283.81031 9281.461876 
98126.466283 22351.20593 9095.10398 
98164.488256 23466.410228 9764.830245 
96318.50104 28895.550312 10100.330724 
95711.827918 27256.967462 9667.590374 
96547.923638 26905.706628 10051.490787 
96660.943332 26140.534865 9368.653523 
96690.584333 27323.915535 9980.114508 
96055.257178 28816.577153 9341.188892 
95573.724395 27508.907108 7948.267088 
95824.899537 28747.469861 8608.414369 
95575.931006 27521.833724 8094.994919 
96849.327862 25355.105027 8667.594991 
96232.81575 26197.65462 8103.455963 
96949.748796 24504.678452 8015.951332 
96865.4507 25418.714114 8580.486684 
96092.816295 26943.652921 8601.785847 
96679.657244 26200.021781 9243.431433 
95474.590793 27240.262848 8905.121834 
96230.084743 27313.998419 8702.651758 
95430.423006 28629.126902 6827.667685 
95131.584616 27492.524256 5586.472053 
95302.269519 28590.680856 6174.524082 
95128.274491 27487.807617 5722.117048 
96409.546689 -70.289708 -31.852492 
96667.439357 7.068059 -177.142852 
96761.410947 -43.471545 -233.743203 
96333.723143 5.952813 -58.381004 
97159.706767 -20.046316 -394.118704 
97312.539573 -12.903094 -399.905887 
96790.86751 18.533947 -414.456558 
97137.659148 -20.275171 -268.579452 
97462.669853 -20.896121 -405.626113 
97614.812815 -16.911058 -403.235815 
97135.484663 0.319242 -397.102051 
96978.001399 9.762326 -403.265973 
96644.499694 -6.136298 -226.482671 
96539.176695 23.066892 -297.61635 
96970.440271 -11.771281 -262.187307 
97599.470449 -4.308333 -515.179588 
98060.683884 14.543904 -592.50609 
98130.843143 4.323845 -614.068404 
97614.888931 46.287294 -601.651247 
98534.881763 48.70734 -627.149701 
99013.388921 103.832268 -619.611679 
99014.985108 72.085258 -675.885449 
98565.729209 151.528562 -638.262377 
98615.959096 12.863597 -690.971443 
99030.722831 44.826102 -718.631784 
99058.404981 21.293378 -749.595711 
98634.321445 74.082903 -727.370535 
98593.435901 110.039816 -689.278881 
98147.430093 59.78088 -673.277227 
98082.622363 87.546316 -640.378118 
98569.1884 29.215245 -664.31183 
98069.74022 -18.818223 -528.229942 
98394.735529 -21.085089 -637.340849 
98493.903454 -25.111971 -634.092541 
98071.690048 -11.372924 -635.239847 
98738.61035 -14.489091 -718.345431 
99096.059722 0.863745 -770.43474 
99141.870297 -16.667782 -782.556466 
98747.750136 15.959177 -771.746884 
98887.385379 -33.470231 -718.942617 
99194.190876 -31.482487 -787.100025 
99251.64275 -43.674544 -784.891548 
98889.305555 -27.045223 -782.971293 
98816.039076 -7.230131 -780.958183 
98495.803576 -18.54011 -718.695979 
98400.158224 -3.246689 -717.548169 
98810.590135 -25.388979 -721.7111 
98686.544896 42.932441 -754.309708 
98308.219108 14.822399 -710.330592 
98223.287859 35.767969 -695.982914 
98673.125512 -1.800335 -708.490355 
97951.583759 0.172157 -634.403057 
97616.137368 -5.096287 -529.495134 
97471.182116 3.201241 -529.451913 
97945.894829 -19.152193 -532.304139 
97719.952507 29.126818 -619.861546 
97319.117558 12.936269 -528.636823 
97175.163132 24.373125 -523.515053 
97708.672979 -7.908873 -524.616917 
97824.128696 -10.746978 -530.042168 
98211.202088 -4.504024 -627.875099 
98299.903514 -12.908508 -635.121975 
97831.369447 13.562317 -629.959769 
99487.984448 185.651427 -571.324186 
99950.563335 299.228818 -484.810305 
99899.323345 230.648448 -587.71779 
99541.773983 364.950323 -515.136435 
100393.465749 449.065187 -363.670626 
100809.674843 638.944316 -212.444546 
100726.40381 515.070705 -368.429259 
100474.139055 717.976223 -252.377769 
100267.952421 273.907115 -598.778497 
100656.464636 407.461729 -498.576374 
100598.773353 313.911264 -605.820725 
100324.188629 461.36113 -523.513635 
100391.092221 580.926241 -400.467485 
99954.818783 415.633144 -520.759172 
100017.508632 522.379916 -399.278488 
100323.376815 355.208223 -492.715191 
101193.004629 871.905768 -36.508863 
101538.273938 1150.055438 158.066954 
101446.486997 952.063733 -50.650027 
101301.094061 1232.203874 114.081126 
101841.439599 1474.451707 364.720018 
102099.676781 1845.044202 576.620009 
102022.645216 1556.129606 322.652916 
101973.789736 1915.618832 537.101982 
101672.408793 1020.94728 -68.822709 
101947.277091 1301.744716 101.368949 
101874.635606 1077.732614 -89.983888 
101772.458703 1354.44698 73.652966 
101869.721284 1617.745155 289.106736 
101550.991326 1300.411497 96.035583 
101659.11468 1552.857914 321.75977 
101754.25749 1232.865841 132.019306 
100896.109671 349.410168 -609.724056 
101222.216398 495.202105 -506.471595 
101163.745048 379.393946 -611.032255 
100951.320661 533.446801 -523.385983 
101526.485255 671.797535 -386.597129 
101805.460295 880.486149 -254.049618 
101740.234397 706.868581 -393.337526 
101599.819497 916.245008 -270.922644 
101404.966035 403.085571 -610.039431 
101679.240581 554.145491 -510.20669 
101622.606605 419.926676 -606.858363 
101456.492346 574.839941 -517.667874 
101524.567204 734.82828 -405.311874 
101217.394135 558.224237 -521.190286 
101286.625879 709.900375 -404.115653 
101462.706014 528.624314 -508.890815 
101682.436938 1121.769505 -112.118551 
101365.004469 882.28156 -263.985965 
101453.009355 1078.080601 -98.205401 
101596.402409 834.987741 -240.769041 
101020.994691 675.578744 -402.793975 
100654.881479 500.938348 -524.23108 
100723.928104 632.339958 -401.564931 
100954.676109 454.516806 -503.055937 
101195.102347 1022.012761 -87.006198 
100806.628264 782.485549 -254.287271 
100904.218529 954.089939 -79.370159 
101102.478131 713.265374 -219.355474 
101023.233091 575.036606 -373.854661 
101363.281688 778.988377 -228.978384 
101288.604805 627.616015 -379.980123 
101101.97964 837.525103 -258.272016 
99588.464243 -55.588302 -834.297684 
99873.312896 -48.538772 -870.698591 
99899.59174 -69.27789 -869.310811 
99590.410394 -49.100878 -864.079248 
100163.767578 -30.457511 -886.255447 
100456.006563 0.978307 -881.54505 
100449.486215 -38.820913 -897.86069 
100174.403074 4.994145 -877.699545 
100186.710447 -84.855476 -891.793035 
100448.21241 -73.066362 -904.735217 
100451.419592 -102.43727 -903.355984 
100188.401092 -79.219991 -895.276456 
100178.713827 -40.2056 -891.017777 
99901.457316 -63.059284 -885.059268 
99879.253572 -28.736535 -880.969415 
100172.844138 -59.771228 -893.057026 
100746.279908 48.012305 -857.53897 
101030.979297 112.71052 -815.61006 
100999.142707 45.640774 -853.913742 
100767.957516 120.270998 -814.302387 
101306.707588 196.900143 -757.509979 
101570.342556 302.116562 -685.333836 
101522.371044 198.871774 -747.516241 
101340.628775 309.970765 -684.941898 
101229.320593 39.632569 -844.433713 
101478.551502 108.564856 -795.135263 
101438.699473 29.753641 -829.773898 
101249.17193 105.803691 -788.386238 
101292.063938 201.148637 -743.767199 
101020.046983 115.321692 -803.700925 
101058.711349 205.150694 -756.949697 
101265.580396 112.870165 -807.683358 
100695.218203 -122.115843 -905.389019 
100933.272872 -106.531818 -901.421906 
100919.496848 -143.957544 -899.090245 
100696.253222 -118.665777 -888.883712 
101169.914894 -79.240179 -883.595519 
101402.601631 -38.844298 -852.876456 
101370.027281 -98.372745 -865.757133 
101178.6345 -50.174826 -841.109804 
101125.532892 -167.991882 -885.496671 
101340.736992 -149.854232 -869.608607 
101314.489064 -194.20449 -865.510282 
101125.541547 -167.963032 -853.972784 
101150.11719 -113.299145 -851.924645 
100920.058761 -142.084499 -874.526456 
100938.008871 -90.745155 -871.547987 
101146.026289 -126.93548 -888.626927 
101211.509135 22.467036 -820.360232 
100960.287791 -31.425596 -859.582931 
100987.441303 36.886033 -837.415892 
101197.556758 -24.040889 -869.279219 
100706.41423 -71.075882 -885.201658 
100452.833503 -97.724231 -896.147222 
100453.853568 -54.262504 -892.028743 
100701.15514 -88.606183 -907.128178 
100741.555522 47.374304 -849.233166 
100459.943113 -3.964589 -878.764318 
100471.933395 54.06775 -855.07747 
100726.04256 -4.335569 -884.450841 
100711.222939 -49.594848 -900.542351 
100972.597974 -12.591732 -880.055688 
100950.811671 -63.012664 -895.463045 
100721.286738 -16.048853 -872.402388 
101395.301372 433.91713 -610.198935 
101104.063561 307.80071 -695.518742 
101156.744996 424.883242 -617.596415 
101353.059869 293.112118 -692.241265 
100801.281653 203.855343 -766.064246 
100490.733195 120.846946 -819.545134 
100517.330967 197.519219 -770.57742 
100772.6444 108.397834 -818.341252 
100892.077602 408.770175 -622.612363 
100552.790714 285.389878 -706.397473 
100598.244732 385.954713 -625.020236 
100846.774896 257.761155 -696.360653 
100805.883796 177.901178 -765.222844 
101112.730512 278.168294 -696.015742 
101068.657008 189.778867 -763.561887 
100842.363779 299.501121 -702.802264 
100176.453277 57.208111 -854.03983 
99862.650749 11.08255 -868.036386 
99852.78939 57.146722 -844.99505 
100160.397551 3.689027 -870.215256 
99553.618271 -19.620764 -860.459819 
99253.594893 -37.163952 -830.687677 
99199.86658 -12.56707 -827.797777 
99547.754154 -39.16781 -836.020699 
99498.41742 54.346293 -826.55406 
99151.699895 16.100239 -816.947717 
99110.614964 49.379393 -797.011327 
99483.037147 3.078709 -816.500819 
99512.202252 -19.741682 -830.431798 
99836.911644 4.220902 -849.090455 
99852.062459 -24.21175 -864.334794 
99522.517589 14.642756 -848.357221 
100271.772302 357.015063 -624.402556 
99877.287003 241.887831 -699.934061 
99908.742753 322.747864 -620.084733 
100225.689637 203.40618 -684.598706 
99477.420234 153.125901 -748.055725 
99078.377451 87.869538 -766.662204 
99056.962419 132.290928 -724.277665 
99449.657123 60.582189 -758.546696 
99504.780771 284.18178 -611.052728 
99048.412225 183.50836 -668.031376 
99055.014489 242.585741 -595.84442 
99460.833233 137.689962 -649.719516 
99448.749389 96.324181 -711.413461 
99863.330047 171.372177 -670.725914 
99840.744435 120.079269 -736.310362 
99484.066843 214.049012 -687.891139 
99461.661264 29.716149 -793.017341 
99829.85163 75.690033 -786.656332 
99829.0624 37.316719 -823.686487 
99482.813448 100.22343 -793.659164 
100195.139783 142.25276 -752.6127 
100552.224577 232.554195 -692.79616 
100515.719669 161.819726 -761.861814 
100232.251689 265.959126 -705.719041 
100163.746055 43.336878 -843.620311 
100488.188601 100.377996 -815.124678 
100468.60667 47.091865 -854.462068 
100185.956451 117.371522 -818.601943 
100204.11842 186.548409 -769.768691 
99850.957336 110.299809 -810.417992 
99858.596907 171.507678 -762.679471 
100174.924337 89.234799 -804.982321 
102311.40247 2260.669704 786.906155 
102476.242396 2719.104962 988.919659 
102434.055335 2327.052243 703.33045 
102461.504689 2761.010434 964.122242 
102594.945939 3217.173172 1176.416694 
102669.257306 3750.896188 1343.749031 
102676.662886 3249.80903 1044.146381 
102753.95594 3747.20651 1344.080401 
102546.833437 2372.942237 617.594278 
102669.753265 2800.84954 773.801188 
102651.203383 2399.041127 531.659638 
102675.349345 2801.328595 773.389703 
102719.544185 3249.067612 1043.63869 
102573.404505 2791.549477 869.162812 
102631.997069 3238.287204 1162.9349 
102576.097591 2770.912297 881.476156 
102701.754113 4315.680765 1486.002603 
102695.666086 4906.524775 1599.088291 
102761.138401 4297.236901 1304.323005 
102859.898948 4842.830214 1633.629831 
102654.686871 5518.228446 1679.783574 
102582.790953 6145.596469 1725.727741 
102708.861436 5434.713123 1453.304069 
102802.678323 6011.533285 1801.223364 
102822.204689 4255.818164 1129.898529 
102808.494832 4785.118807 1199.16172 
102884.414594 4193.010014 964.12364 
102949.832945 4681.245685 1258.300955 
102888.478973 5317.050637 1519.860776 
102903.706241 4772.463033 1441.465891 
102849.817191 5420.36179 1734.127099 
102750.471254 4857.024908 1394.169009 
102748.223404 2406.195628 447.241515 
102841.631998 2799.318233 565.179796 
102838.618304 2395.362695 365.831972 
102855.272411 2763.025651 586.636338 
102904.750073 3216.458098 666.661959 
102939.23894 3654.559688 748.553942 
102975.446451 3165.99236 552.436212 
103011.360984 3571.827804 796.554817 
102922.838726 2367.584298 288.722042 
102995.354609 2723.638088 375.446744 
103001.108454 2323.96944 217.020776 
103009.21831 2655.516244 415.981754 
103017.02869 3091.244246 596.328529 
102935.200625 2717.303767 498.67297 
102949.293362 3158.189445 700.608164 
102920.697655 2770.140797 467.316259 
102989.837355 4100.670004 1017.145658 
102950.471357 3645.202493 924.733532 
102936.215763 4182.028172 1171.608061 
102872.741093 3710.34913 887.400533 
102877.407821 3207.703136 810.823865 
102768.921773 2791.435761 678.674191 
102801.029943 3238.438468 925.675166 
102758.08088 2809.946666 667.816597 
102882.57972 4243.503036 1333.842769 
102822.022421 3734.340812 1199.994938 
102829.056608 4283.560527 1502.433635 
102737.526274 3759.99155 1186.492186 
102755.355539 3259.700953 913.94135 
102805.402026 3745.98238 1033.837459 
102831.353386 3248.142591 787.60082 
102887.401806 3699.855178 1059.672433 
102484.065706 6783.618969 1735.376767 
102362.565989 7427.622587 1707.926309 
102547.09626 6625.576504 1472.143895 
102614.178602 7217.328622 1828.422073 
102222.195736 8073.386604 1643.212513 
102066.618264 8717.222781 1541.60033 
102304.510154 7835.966244 1352.679562 
102328.831415 8428.838868 1708.680002 
102615.206745 6448.668464 1225.978152 
102510.762698 7015.460604 1170.777522 
102687.032184 6254.197195 997.42887 
102713.154604 6775.161329 1310.356136 
102536.877814 7572.623982 1505.408103 
102660.751511 7004.42734 1560.198105 
102481.499724 7824.06837 1786.934722 
102434.160682 7230.233541 1429.846258 
101899.194522 9356.020787 1403.86818 
101722.946725 9987.263572 1231.096234 
102007.816668 9038.179257 1095.197363 
101978.942795 9621.848365 1444.49854 
101540.543655 10609.018527 1024.563638 
101354.303352 11219.910815 785.658082 
101679.821406 10212.286385 705.490942 
101591.892853 10780.182519 1044.023982 
102120.148885 8707.075038 809.909235 
101973.149096 9259.864727 626.07393 
102234.738004 8363.229621 548.346038 
102170.200697 8873.914411 853.097092 
101897.485136 9799.675778 948.040734 
102072.520515 9253.858747 1136.67909 
101788.582713 10206.0502 1260.657835 
101846.48518 9629.675923 916.37492 
102761.210132 6043.44938 786.995997 
102673.279399 6538.254538 711.34851 
102836.362277 5817.72189 595.131392 
102829.814314 6272.129989 867.429114 
102573.877457 7032.008296 606.698266 
102465.390201 7522.366631 473.122414 
102666.206755 6736.728542 401.08634 
102620.553212 7187.594146 670.391767 
102911.080067 5578.343956 422.235105 
102838.534643 6005.305432 332.787787 
102983.914423 5326.695879 268.647362 
102952.960326 5717.944817 502.53567 
102800.722407 6426.183787 584.288301 
102891.280446 6000.782454 675.070995 
102731.3358 6731.775876 783.207944 
102756.307879 6278.13536 511.779554 
102410.845757 8003.279724 760.245566 
102542.620186 7517.015246 896.793024 
102323.488798 8357.522847 1014.970044 
102362.262994 7841.337181 706.348818 
102663.257947 7025.462737 1003.234599 
102769.973841 6530.669384 1079.306302 
102597.953432 7306.096384 1244.071183 
102590.945802 6784.422253 931.142692 
102239.417772 8699.601715 1293.050693 
102395.273167 8138.509621 1416.20812 
102160.108268 9028.856127 1594.227937 
102161.396371 8439.530376 1240.922722 
102391.534271 7582.641152 1082.850792 
102260.430857 8147.329713 962.399285 
102481.814667 7314.330181 834.071465 
102467.030973 7834.296826 1145.492329 
103073.462626 2265.681423 151.671212 
103130.890044 2583.734995 213.677883 
103139.779189 2193.928775 93.463308 
103140.42708 2488.896267 270.327239 
103168.095848 2915.594569 260.330968 
103186.447805 3258.938613 289.801689 
103224.163724 2803.769973 182.443477 
103229.415309 3119.99277 372.153383 
103199.805376 2109.958584 43.044044 
103245.792253 2390.066565 86.277587 
103253.18064 2015.051288 0.924996 
103248.945438 2273.75879 155.940598 
103246.269908 2676.697631 258.139583 
103197.614519 2386.713205 208.925302 
103195.633944 2799.547997 329.295887 
103191.145742 2492.950411 145.373786 
103187.494918 3611.370859 300.540453 
103172.919306 3970.472628 291.275228 
103240.478249 3452.017986 205.892162 
103238.465858 3781.27399 403.254903 
103144.491493 4333.850307 261.001367 
103104.030502 4699.17654 208.964329 
103200.665335 4120.76803 153.927491 
103180.781555 4454.81718 353.767145 
103288.627602 3281.856905 124.998979 
103275.658383 3589.295703 103.627805 
103330.870299 3102.444485 58.071813 
103319.053554 3383.276746 226.184093 
103260.14479 3896.165127 287.268732 
103280.84984 3586.589957 307.530813 
103217.060865 4117.611158 389.037397 
103226.780077 3784.949416 189.80386 
103299.457167 1910.516131 -32.512258 
103335.944032 2153.517699 -2.638594 
103338.11882 1797.686691 -57.012499 
103332.635373 2021.110152 76.820624 
103358.486176 2403.230498 14.2871 
103368.152467 2657.807345 17.195134 
103389.321752 2252.927366 -19.124531 
103383.164678 2485.492171 120.174381 
103368.599189 1677.916031 -72.444569 
103396.140198 1885.333599 -51.055277 
103390.299227 1552.571093 -78.799987 
103387.91039 1742.286699 34.892106 
103392.075148 2095.78343 75.030924 
103364.088464 1884.252169 51.165346 
103365.331049 2251.474422 105.121378 
103370.139778 2022.665529 -31.955596 
103359.432044 2913.847605 170.511977 
103353.080002 2655.957897 165.691293 
103325.543801 3100.176192 233.106997 
103331.913673 2822.119701 66.537993 
103331.687349 2401.187814 145.758999 
103294.091645 2151.421306 111.804752 
103291.799258 2543.423249 196.841457 
103294.268074 2276.456898 36.834989 
103286.488867 3278.749645 308.754542 
103275.456341 2974.745362 291.893859 
103243.162703 3447.988273 397.261324 
103240.125799 3124.206087 203.068319 
103275.091048 2680.131494 115.24822 
103288.919932 2978.09663 128.550192 
103320.13114 2546.128357 59.115634 
103316.919134 2819.558448 222.980974 
103079.026282 5061.410608 425.588718 
103132.196715 4695.561114 477.594255 
103024.262022 5322.622086 573.041405 
103039.877258 4930.91386 338.537118 
103170.847046 4329.591447 506.541071 
103192.917565 3965.739217 513.12456 
103122.635613 4530.532517 639.516317 
103115.261426 4144.306048 407.788152 
102968.588111 5572.908776 738.974398 
103030.169489 5144.802448 776.29003 
102913.339822 5810.828007 923.08739 
102904.085412 5357.89978 651.326031 
103021.451839 4725.640203 524.785188 
102972.769519 5150.980408 486.097544 
103084.324115 4535.985782 384.717408 
103081.579258 4926.064934 618.530771 
103196.413004 3606.341032 498.310196 
103179.455061 3253.797782 463.35499 
103147.028729 3752.283038 611.459883 
103128.752394 3380.805666 388.332537 
103140.340194 2910.532746 409.821299 
103077.600668 2578.943486 339.581265 
103080.732644 3008.23154 499.089542 
103065.501859 2661.071627 290.609505 
103095.729041 3884.310645 736.141805 
103070.000435 3481.172307 676.30322 
103043.151346 4000.934377 871.653201 
103004.457288 3580.071468 618.463066 
103043.183602 3098.106468 446.03829 
103067.844661 3488.336142 498.113702 
103107.568692 3014.176553 348.408745 
103126.155311 3374.678832 564.962797 
102859.828385 6035.002044 1125.011574 
102929.780062 5541.128557 1140.686607 
102809.350232 6244.102695 1344.315689 
102767.303732 5726.586534 1033.102069 
102976.75449 5051.98504 1127.062918 
102997.729949 4570.727866 1085.323146 
102931.086016 5193.756086 1317.186936 
102868.884078 4692.417 1015.224813 
102763.199369 6436.832473 1580.507783 
102840.39332 5873.152736 1566.740737 
102722.682701 6611.902296 1833.03186 
102639.860006 6025.701264 1479.732343 
102767.292541 5329.725852 1239.302602 
102701.783235 5885.546038 1248.616873 
102828.890477 5204.829943 1038.707268 
102883.138534 5715.879162 1346.314539 
102947.130731 4110.356169 808.180916 
102930.734646 4580.474247 843.343863 
103009.629931 4009.370613 663.073243 
103046.750873 4442.42331 923.536906 
102892.546107 5061.533769 852.315842 
102835.162738 5550.237728 833.820476 
102957.123169 4901.314717 680.813811 
102979.176242 5350.300883 950.495888 
103071.112802 3891.549862 529.647388 
103054.952034 4304.920584 538.975173 
103130.711213 3758.38471 408.610448 
103145.177333 4138.431631 636.791109 
103073.520753 4718.904661 787.594164 
103096.166902 4297.827183 773.789759 
103024.556255 4893.212944 950.302222 
102993.092022 4450.808891 684.357508 
101487.415087 -222.533651 -839.920738 
101680.646188 -203.094532 -815.7915 
101645.251707 -252.869611 -809.425223 
101486.152221 -226.743204 -797.293906 
101869.003306 -173.091485 -782.858938 
102050.879452 -131.836568 -742.083601 
102005.017094 -203.397498 -747.16388 
101873.631284 -157.664889 -722.662142 
101788.836516 -285.055839 -774.645724 
101960.988446 -265.398115 -744.900471 
101918.910997 -318.891677 -736.143956 
101786.227078 -293.753964 -724.018838 
101828.62746 -230.567773 -726.956908 
101643.31363 -259.32987 -762.453013 
101682.315464 -197.530277 -764.060963 
101827.837467 -233.201084 -782.216181 
102224.814314 -78.804184 -694.557807 
102389.510456 -13.642595 -641.484954 
102337.595803 -111.332704 -657.353686 
102235.106579 -44.496635 -619.55757 
102543.846059 63.817786 -584.156862 
102686.883906 153.559625 -523.929739 
102633.342839 25.828741 -548.640188 
102558.915585 114.049538 -497.399591 
102437.438727 -146.785702 -617.347802 
102579.164157 -86.430386 -565.316154 
102524.908803 -184.755794 -574.771802 
102444.358594 -123.719479 -539.96579 
102501.357904 -12.508873 -522.723811 
102346.168271 -82.757812 -580.986225 
102402.342386 29.130503 -560.217693 
102490.578018 -48.441828 -604.767312 
102036.128433 -354.135972 -694.434101 
102187.960049 -335.072376 -660.880672 
102141.062325 -390.511419 -649.993551 
102032.277127 -366.973658 -638.297005 
102333.269435 -307.291231 -621.724851 
102471.067294 -270.564218 -577.764752 
102418.06719 -345.158845 -574.995877 
102333.638159 -306.062151 -553.43003 
102234.215122 -427.709414 -603.271807 
102366.279927 -409.736647 -567.110064 
102316.027046 -465.395267 -554.697732 
102229.394545 -443.778006 -543.660714 
102280.573456 -379.890786 -551.118976 
102136.682695 -405.110188 -591.888088 
102186.270851 -340.703035 -598.428384 
102282.955232 -371.951531 -615.016657 
102388.333706 -221.102761 -549.947001 
102237.858658 -266.320553 -599.279304 
102291.240684 -180.771274 -593.725105 
102384.874242 -232.634305 -622.740693 
102079.905443 -302.496708 -643.749169 
101915.656575 -329.739749 -682.48237 
101960.908549 -265.664439 -686.718385 
102080.819867 -299.448627 -704.311176 
102181.486635 -142.501236 -635.199878 
102008.519232 -191.723704 -684.214285 
102058.409606 -106.736052 -674.115941 
102175.364915 -162.90697 -705.196471 
102127.292676 -236.063062 -708.160759 
102286.486048 -196.62006 -665.315553 
102236.513661 -270.803875 -666.228406 
102129.69093 -228.068882 -642.978464 
102817.87644 255.37758 -462.199424 
102936.266865 368.880884 -400.376592 
102885.194535 207.899374 -430.798301 
102836.219169 316.520011 -366.761677 
103041.686383 493.499472 -339.862565 
103133.947812 628.493379 -282.026353 
103088.812169 431.965544 -314.033338 
103061.269831 558.77763 -238.613984 
102941.386926 156.688518 -396.149644 
103039.385388 257.270881 -339.276221 
102986.66237 102.470367 -358.344865 
102953.770619 197.967493 -301.819373 
103009.020224 367.709471 -273.736378 
102900.446511 258.739293 -335.873598 
102955.512567 433.033226 -301.696104 
102993.197911 314.96843 -371.645734 
103213.03591 772.965006 -228.183468 
103279.094851 925.873777 -179.576934 
103242.509233 692.549896 -208.293694 
103231.420922 834.24838 -123.583735 
103332.413337 1086.052602 -137.360832 
103373.407882 1252.225549 -102.586585 
103346.984604 981.943178 -122.659578 
103346.892648 1134.31697 -31.304991 
103261.941393 608.724451 -183.066896 
103312.452032 739.446275 -139.272874 
103271.134356 522.545101 -152.683791 
103272.195726 642.90556 -80.497381 
103313.062487 875.166273 -57.887572 
103256.617714 739.578167 -104.730976 
103295.87667 981.813173 -74.052126 
103300.773401 834.202653 -162.444171 
103021.171253 45.992143 -317.530605 
103099.91022 133.776599 -264.056339 
103045.022025 -11.986778 -273.908937 
103028.594519 70.736363 -224.676563 
103167.617785 228.423291 -212.302971 
103224.256761 329.146556 -163.148185 
103172.946571 157.260165 -170.916553 
103174.265735 250.583125 -114.934915 
103058.296526 -70.704258 -227.736577 
103118.23572 5.00179 -176.231028 
103061.064257 -129.404521 -179.323115 
103061.928999 -58.596014 -136.850245 
103119.407367 86.532755 -127.322627 
103050.395877 5.92606 -181.967846 
103107.183831 158.021971 -168.751451 
103114.338218 69.635592 -221.585171 
103225.546172 435.392961 -99.418878 
103161.149002 329.72313 -151.711684 
103211.317438 522.912152 -130.493469 
103217.171338 407.476846 -199.573415 
103084.748576 229.306944 -207.117219 
102996.428602 135.024475 -264.700161 
103052.054604 299.501601 -242.172514 
103074.93605 196.598525 -303.360575 
103187.195227 609.082359 -157.021936 
103104.659306 484.789337 -213.727532 
103153.257016 692.857391 -178.827027 
103171.908713 558.127313 -259.191085 
103125.512371 366.677269 -284.079278 
103199.682656 484.129544 -231.660858 
103151.790796 298.529107 -250.108511 
103137.943244 408.113512 -184.714014 
102386.884895 -503.213657 -504.685301 
102499.518097 -486.506009 -466.685247 
102447.130694 -540.794223 -453.638006 
102381.509892 -521.13033 -443.305562 
102604.795048 -462.962645 -424.861897 
102702.105084 -432.626951 -379.821167 
102645.59092 -502.180046 -372.649132 
102602.461638 -470.74068 -354.757189 
102497.0701 -577.757213 -401.952047 
102590.416091 -562.188612 -362.601478 
102536.980478 -613.719115 -350.018436 
102491.663403 -595.779537 -340.268955 
102546.148332 -537.902272 -349.023455 
102441.669263 -558.998992 -391.935661 
102495.741323 -499.095257 -400.776748 
102550.112263 -524.68917 -414.914384 
102790.918643 -395.64015 -332.198765 
102870.787008 -352.240486 -282.649055 
102811.934545 -438.395254 -279.763846 
102790.85467 -395.853395 -254.725712 
102941.340418 -302.761032 -231.833956 
103002.284584 -247.626197 -180.412087 
102942.666234 -351.223031 -179.703907 
102942.497258 -298.904899 -148.340007 
102822.762542 -480.105363 -226.790965 
102882.900975 -441.649006 -177.390617 
102823.608096 -520.25485 -173.650077 
102821.920897 -482.910848 -151.29772 
102882.02873 -397.226119 -150.775975 
102811.372368 -440.269176 -203.159866 
102871.479747 -349.931355 -202.001393 
102881.926647 -397.566396 -230.329288 
102567.11859 -648.298192 -298.224114 
102641.186236 -633.484478 -257.847736 
102587.727826 -681.11989 -246.952194 
102562.271332 -664.455722 -237.526372 
102707.39201 -613.420828 -214.506052 
102765.339741 -588.291125 -168.646013 
102708.586196 -646.911677 -162.52829 
102704.962832 -621.518088 -147.38387 
102599.044918 -711.822024 -196.581419 
102653.781039 -697.177337 -155.433372 
102601.30611 -740.059724 -147.484916 
102595.374811 -724.055713 -138.021323 
102649.047912 -676.771106 -143.303795 
102583.391917 -695.57292 -187.186757 
102637.627407 -645.347241 -193.815201 
102652.137031 -666.474042 -206.159704 
102762.733418 -557.270554 -150.105318 
102693.972315 -586.776475 -198.829264 
102752.035486 -518.801228 -202.020075 
102764.416087 -551.661658 -221.446824 
102616.831795 -611.4572 -245.181958 
102531.776956 -631.064188 -288.676151 
102586.422155 -575.501733 -297.038909 
102620.691945 -598.590035 -310.120653 
102731.541326 -478.292462 -254.05804 
102642.965329 -510.932014 -302.874846 
102701.021351 -436.239392 -305.861005 
102733.022346 -473.355729 -327.403722 
102676.127617 -540.625321 -319.941253 
102753.717557 -513.194325 -274.491222 
102696.649836 -577.851407 -267.102936 
102673.38545 -549.765877 -250.78069 
103002.698188 -186.534017 -143.774716 
102931.79023 -246.438697 -198.277629 
102991.666569 -128.338918 -191.701798 
103000.367255 -194.303793 -231.058232 
102850.82152 -301.167026 -252.471003 
102760.151318 -350.212624 -305.64563 
102819.856955 -251.540851 -301.847474 
102849.299526 -306.240338 -333.989086 
102970.369518 -69.41417 -237.82028 
102879.574703 -138.809801 -294.055536 
102938.669544 -10.498337 -281.829381 
102965.116586 -86.923944 -327.063539 
102907.583035 -203.816645 -332.408836 
102988.016256 -140.506629 -280.052334 
102929.696863 -253.416586 -282.851556 
102910.87302 -192.850027 -246.956507 
102660.23015 -393.15647 -357.086267 
102551.602072 -429.671529 -406.083198 
102608.896876 -349.570686 -407.407957 
102660.727988 -391.49701 -431.394188 
102434.905102 -459.526151 -451.944093 
102310.869777 -482.586163 -494.005937 
102363.30797 -419.643171 -502.174455 
102438.347097 -448.052834 -517.541337 
102546.714952 -306.014457 -456.517454 
102417.560407 -346.848121 -505.739702 
102473.331092 -263.018222 -504.122799 
102545.522845 -309.988148 -530.680828 
102491.343663 -384.009795 -526.381794 
102608.631274 -350.456029 -481.787766 
102553.476482 -423.423498 -476.222627 
102490.083144 -388.211527 -456.518775 
102896.4014 47.655708 -323.476089 
102785.015686 -32.129383 -382.425975 
102843.357885 104.289653 -362.556776 
102887.14708 16.807975 -414.034571 
102662.761906 -103.779454 -440.51192 
102530.27489 -166.868838 -496.693876 
102587.990957 -57.007719 -482.771032 
102655.757366 -127.127923 -523.307218 
102779.274606 158.648894 -398.917843 
102646.015473 68.070856 -461.620083 
102703.813605 209.991955 -432.455344 
102765.090817 111.369598 -490.224266 
102710.826097 -15.582195 -510.335605 
102831.742603 65.572046 -453.557538 
102776.697629 -59.856238 -469.376382 
102721.237792 19.123454 -423.255158 
102600.48115 -224.79363 -529.864051 
102720.760761 -170.015524 -478.936247 
102664.554846 -266.416446 -482.875407 
102604.420378 -211.662868 -451.382901 
102831.281128 -106.400673 -425.928415 
102931.543047 -34.253327 -371.804799 
102874.838148 -154.598318 -380.193089 
102837.699883 -85.004823 -339.292572 
102717.466732 -309.116434 -434.073427 
102817.275172 -260.146795 -384.015568 
102759.504438 -352.368891 -383.74517 
102719.027354 -303.914361 -355.592789 
102778.367591 -201.677795 -349.824099 
102667.218637 -257.537141 -404.264548 
102726.101766 -152.212176 -396.126262 
102774.507484 -214.544819 -432.423288 
103372.328877 1422.587929 -0.46875 
103327.816119 1251.80615 -38.084374 
103351.050873 1551.834477 3.538064 
103355.506687 1366.513962 -107.473027 
103269.431582 1085.751424 -83.935904 
103196.758389 925.787435 -136.919312 
103233.964729 1185.76974 -87.44679 
103247.703092 1013.323124 -190.53313 
103321.504753 1676.814152 15.826291 
103263.563075 1475.097458 -29.855606 
103284.122442 1796.158054 36.392338 
103292.368741 1579.69411 -93.206814 
103274.614678 1281.447973 -145.713917 
103328.330948 1476.101395 -104.360675 
103308.162156 1186.292938 -145.07622 
103299.929383 1365.830324 -37.616308 
103109.538663 773.185657 -195.817247 
103007.691749 629.107046 -259.313101 
103056.01603 849.019772 -207.988803 
103085.861331 694.261215 -300.112494 
102891.329882 494.584365 -326.008171 
102760.770664 370.505765 -394.441703 
102816.182422 551.493099 -346.69833 
102868.421444 418.222905 -425.441272 
102992.585231 919.326093 -215.427001 
102869.244548 754.970447 -288.304383 
102919.041209 983.09429 -218.307178 
102959.261317 808.246378 -322.245182 
102915.869588 601.824633 -379.088537 
103027.655401 754.484341 -313.48011 
102984.080296 550.402203 -361.533688 
102943.767474 694.817586 -275.843749 
103239.284251 1908.505486 65.113756 
103166.44495 1674.221831 7.162105 
103187.299883 2012.510557 101.747292 
103195.8676 1763.783315 -47.188377 
103074.97581 1450.255575 -60.393696 
102964.532872 1238.164334 -135.733303 
103004.543452 1522.62521 -39.603263 
103029.468043 1298.563018 -173.387635 
103128.388109 2106.847829 145.926163 
103037.747028 1839.066062 71.049736 
103062.654494 2190.217284 197.156197 
103068.96778 1908.780066 28.559002 
103053.768652 1587.35825 -79.507433 
103136.079559 1841.776145 -12.828374 
103121.502927 1524.415088 -105.889652 
103106.025363 1761.547286 35.9407 
102997.524975 1039.702429 -253.989723 
103097.628576 1239.115738 -186.48084 
103065.905289 983.287832 -255.403777 
103036.71881 1170.348544 -143.898504 
103181.008233 1451.687759 -125.936155 
103248.077881 1676.009517 -74.085339 
103232.126818 1370.309934 -139.291188 
103218.99785 1578.319816 -14.869144 
103124.628189 919.363604 -251.687459 
103206.859785 1095.419926 -195.27526 
103173.6971 848.916473 -242.646803 
103152.738335 1013.064091 -144.696512 
103189.665956 1280.657585 -84.596703 
103099.405125 1094.95395 -146.971302 
103136.658034 1369.213931 -75.503641 
103156.783144 1171.048214 -193.868202 
102616.545774 257.600226 -463.11348 
102459.40544 156.425443 -530.508451 
102516.931926 300.788101 -490.881866 
102596.727546 191.539467 -554.610622 
102290.318353 67.358618 -595.122826 
102110.466856 -9.409419 -655.490931 
102164.536769 101.668323 -627.325895 
102275.371248 17.534934 -675.307411 
102404.302374 338.9136 -515.79138 
102220.414708 228.039807 -588.524787 
102277.834873 371.389614 -537.908348 
102378.442365 252.713572 -606.827219 
102326.710599 127.524203 -646.429141 
102494.122104 224.755361 -582.241126 
102441.838785 97.869929 -616.780696 
102346.834484 194.60382 -560.892951 
101921.237392 -73.876528 -710.212111 
101724.20642 -126.227863 -757.976898 
101769.07354 -44.272201 -743.211728 
101912.290751 -103.698665 -775.660974 
101521.122134 -166.830794 -797.591713 
101313.882522 -196.226299 -828.001432 
101344.084175 -138.696956 -827.062667 
101518.591265 -175.267026 -845.113408 
101600.883247 -18.212579 -772.810614 
101377.851306 -72.292664 -817.654059 
101415.479404 4.081611 -798.662326 
101589.22437 -57.075505 -831.471302 
101552.482346 -120.434256 -842.639823 
101758.738084 -78.72372 -805.585144 
101718.461276 -145.378345 -814.835728 
101559.303847 -97.695918 -789.781655 
102136.53077 397.695923 -557.326742 
101922.062361 278.822183 -635.49332 
101979.189222 417.392134 -574.15795 
102104.59814 291.253823 -647.000134 
101694.921432 176.904005 -706.650265 
101457.265386 91.640019 -768.861681 
101503.50124 191.730647 -726.906521 
101671.733164 99.609779 -778.402423 
101804.379413 430.131715 -588.517544 
101554.465355 305.852811 -671.32421 
101610.410769 435.677271 -600.508352 
101766.803828 304.879767 -675.455957 
101717.676605 195.450199 -733.892531 
101944.349226 301.258814 -662.675933 
101894.374652 186.529819 -716.850494 
101747.671184 295.43213 -654.81512 
101628.940343 15.876409 -810.474035 
101846.724126 85.938576 -757.81824 
101801.495757 -2.026208 -786.970008 
101646.036211 72.862635 -745.522049 
102053.963959 172.130427 -696.532029 
102248.915652 274.992211 -628.398901 
102197.718093 152.384424 -673.034155 
102079.199704 256.249578 -613.392967 
101957.627173 -23.887896 -759.620241 
102147.451085 44.716044 -706.079271 
102098.422628 -49.556846 -728.72766 
101971.417263 22.079069 -688.598167 
102024.107338 131.607378 -656.721989 
101816.984353 49.602446 -718.681746 
101867.979309 156.789187 -683.204162 
102004.903224 67.593664 -733.641375 
102990.066334 2261.34894 254.810475 
102876.924336 1959.933632 157.96988 
102910.423773 2319.007631 318.12216 
102913.21797 2005.187726 130.031585 
102737.773694 1676.691234 51.775604 
102572.671777 1413.369972 -60.843077 
102628.411251 1703.613947 89.61891 
102663.965847 1430.665077 -73.239718 
102823.325749 2361.998544 386.175234 
102680.713863 2027.769669 262.022964 
102728.129147 2389.174297 457.892966 
102728.002015 2044.252766 251.090353 
102699.355184 1720.256394 78.065465 
102824.440877 2032.397979 188.585984 
102800.989739 1706.81831 32.308972 
102783.582589 2001.014408 208.309483 
102382.169877 1171.422447 -176.796586 
102167.335543 951.962338 -292.89704 
102234.643754 1177.378296 -161.044847 
102315.88022 950.456923 -295.29301 
101929.759976 755.730162 -405.927121 
101671.549551 583.069826 -512.713085 
101738.032543 750.118698 -406.049161 
101874.448398 571.358235 -510.196857 
102070.362465 1171.311057 -144.443733 
101809.923646 939.166078 -278.482655 
101887.167708 1152.844194 -127.837321 
101993.471185 915.00679 -268.073624 
101932.679324 732.380428 -399.736357 
102162.929369 938.330348 -282.073205 
102106.18136 748.115061 -405.279016 
101998.270543 951.017824 -286.02368 
102623.899071 2399.444569 532.024066 
102441.934743 2034.448926 375.031464 
102509.347705 2391.789528 607.126671 
102509.557851 2018.307168 383.207729 
102223.411236 1698.744463 212.185414 
101969.550704 1394.116274 48.198118 
102056.650474 1666.322659 252.055914 
102120.656485 1356.228626 67.558465 
102382.758615 2365.278688 681.550637 
102147.775944 1973.232032 486.265879 
102241.892688 2319.097224 753.419101 
102249.578369 1921.344538 515.114738 
102185.469531 1621.374287 276.144455 
102385.507843 1978.989987 450.009959 
102332.634584 1670.115063 226.924954 
102302.860118 2012.676244 431.648417 
102056.352867 1121.934905 -113.062359 
102277.081852 1396.16365 31.963055 
102220.166566 1153.353735 -137.003829 
102145.617522 1419.483754 20.900614 
102466.288515 1702.545048 176.577281 
102623.325782 2039.829747 316.402094 
102588.103367 1719.068015 126.531487 
102567.289411 2039.214702 318.01518 
102368.189881 1172.026345 -160.801548 
102547.224382 1432.991051 -39.556177 
102502.117222 1178.18812 -183.516511 
102445.15905 1428.590242 -34.651205 
102507.242234 1716.776243 129.701117 
102303.408046 1430.825336 -7.075578 
102372.847058 1715.381003 170.956347 
102418.70408 1421.64906 -4.134125 
101819.09286 429.559885 -601.474584 
102050.544539 580.060385 -508.568882 
101996.486402 431.809177 -593.789162 
101865.086496 582.872006 -506.136366 
102262.696465 754.054543 -409.436292 
102453.983576 951.572777 -307.014106 
102403.829062 750.353263 -411.690269 
102319.176645 942.321808 -298.474139 
102156.525381 426.66004 -583.652466 
102352.490917 572.004223 -499.139167 
102300.662643 414.240347 -570.890728 
102195.867552 557.80061 -487.145361 
102256.891105 738.598226 -401.379593 
102039.252789 574.363802 -497.699912 
102102.065145 751.795736 -404.515067 
102209.380754 580.230388 -504.995083 
102623.287318 1172.239479 -204.290365 
102769.933285 1415.285394 -104.237719 
102732.737002 1154.718277 -222.35332 
102687.377431 1385.873191 -84.770238 
102893.676694 1679.5718 -9.750753 
102994.676896 1963.625293 76.410843 
102977.854594 1639.424616 -47.262929 
102961.479381 1905.580758 111.948972 
102831.247182 1126.276824 -237.028749 
102952.267732 1348.372812 -154.970304 
102919.382374 1087.662675 -247.73564 
102882.56969 1297.351852 -122.83268 
102925.149223 1585.199541 -13.581593 
102790.393117 1346.905329 -105.65679 
102836.41701 1636.897811 17.106192 
102865.86349 1387.580429 -131.719671 
102430.100822 394.802412 -555.326817 
102596.321279 531.570295 -479.309726 
102545.82441 368.706394 -536.796437 
102462.292591 502.108308 -458.669402 
102746.66653 685.035053 -402.387995 
102880.514391 854.671565 -326.609082 
102836.84021 646.955989 -392.643479 
102783.753457 808.658146 -296.872806 
102648.628984 336.40505 -515.160659 
102789.40785 462.244528 -446.876265 
102739.14786 298.429751 -490.315543 
102673.683081 419.918704 -418.929803 
102729.671723 602.918537 -363.860799 
102574.417737 464.017482 -440.297772 
102631.267992 648.059339 -377.656468 
102698.868808 500.242154 -464.780027 
102835.05425 1039.347144 -216.895199 
102686.783251 855.015129 -301.805168 
102740.143965 1087.150834 -211.547507 
102791.130908 892.936003 -326.857978 
102520.28529 686.165035 -388.309953 
102336.457568 533.556764 -474.215227 
102395.854128 716.548261 -396.105246 
102481.132065 555.654285 -490.676539 
102633.650153 1125.626057 -202.710603 
102455.489176 922.553643 -302.165454 
102514.699862 1153.960397 -190.919761 
102578.568822 942.02162 -316.570677 
102530.879739 737.31323 -411.553358 
102690.682703 922.279958 -323.361534 
102644.887402 715.3623 -408.582236 
102577.65451 893.229135 -303.434058 
101166.208929 11819.085189 515.799411 
100977.933278 12406.161823 216.377632 
101338.728587 11346.294549 192.056392 
101189.09482 11895.37149 517.936059 
100790.869617 12981.191059 -111.295732 
100606.165034 13544.610456 -466.02418 
100998.348081 12435.414248 -436.150345 
100786.220198 12965.692996 -122.92898 
101512.814127 10862.77658 -104.924278 
101358.763876 11376.010639 -405.423254 
101686.979502 10368.459351 -374.263619 
101508.020982 10846.799432 -91.445844 
101162.985712 11880.664251 -107.202536 
101347.822439 11376.607391 199.482324 
100986.889198 12436.014886 211.215172 
101167.740125 11896.512293 -108.230936 
100424.755684 14097.206883 -846.752549 
100247.399173 14640.085086 -1252.583458 
100668.818883 13480.997706 -1171.278463 
100394.125665 13995.106819 -869.141012 
100074.708369 15174.646027 -1682.78926 
99907.179834 15702.572644 -2136.816594 
100357.550633 14489.573014 -2007.552336 
100020.044425 14992.432881 -1713.55425 
100913.883698 12851.4708 -1466.301623 
100774.911712 13323.669164 -1871.143886 
101158.119035 12208.249423 -1729.781685 
100854.112449 12652.233302 -1470.339168 
100452.841158 13797.06284 -1594.469672 
100623.915424 13331.319511 -1185.044398 
100204.489705 14497.053527 -1279.416474 
100510.518573 13989.32089 -1577.035039 
101859.509154 9863.57076 -615.01097 
101738.04083 10302.117723 -913.039133 
102028.433032 9348.661996 -826.182235 
101826.949991 9755.040217 -587.009802 
101619.976319 10729.574389 -1236.696361 
101506.618599 11145.936898 -1585.621031 
101820.405171 10138.598651 -1440.710874 
101558.694606 10525.302015 -1214.67202 
102191.508021 8824.631663 -1006.806653 
102099.964954 9187.37851 -1296.93726 
102346.208297 8292.748248 -1155.982565 
102131.886108 8625.891953 -961.003433 
101861.548667 9546.741719 -1086.773094 
101982.1916 9194.523889 -789.683566 
101691.213709 10146.027319 -888.409067 
101922.356771 9749.4354 -1121.05544 
101222.885495 11560.925265 -1343.11276 
101367.84373 11153.552529 -988.096504 
101011.967987 12215.942478 -1087.444812 
101283.843879 11764.119878 -1352.300569 
101516.72775 10735.351368 -658.20571 
101668.272782 10306.103616 -353.934273 
101340.082285 11313.73867 -397.396403 
101549.469022 10844.488941 -674.088321 
100799.909748 12857.345824 -800.27518 
100979.943267 12374.064866 -440.747797 
100588.302635 13485.069128 -483.373343 
100831.711614 12963.352045 -790.76689 
101206.820092 11878.321076 -732.936008 
101058.173292 12369.960161 -1086.755259 
101414.677216 11309.664148 -1000.272299 
101174.320717 11769.989825 -729.618559 
99745.236198 16225.827107 -2614.293331 
99589.229836 16746.648096 -3115.009239 
100070.223576 15472.240815 -2941.818555 
99668.779969 15970.973009 -2651.715019 
99439.491578 17267.582624 -3638.930177 
99296.310259 17791.502458 -4186.168406 
99811.753035 16444.589031 -3973.812397 
99343.837691 16948.736333 -3681.938254 
100398.686366 14696.471868 -3235.684539 
100289.727376 15144.826196 -3740.888192 
100727.995793 13897.798517 -3491.852886 
100286.306421 14321.87205 -3247.405091 
99832.083596 15608.558778 -3473.016855 
99976.438452 15159.623733 -2967.375381 
99502.821583 16458.620584 -3155.318381 
99937.079271 15958.544361 -3445.499076 
99160.123228 18321.671144 -4757.049438 
99031.201724 18861.692736 -5351.877981 
99587.324155 17427.273372 -5106.317387 
99048.429433 17949.358446 -4805.264625 
98910.216895 19415.795999 -5971.266511 
98796.974545 19988.606575 -6615.443937 
99403.282342 18447.40896 -6345.085716 
98786.723364 19004.150959 -6024.977936 
100026.033554 16493.017232 -5414.948877 
99963.375084 16953.302178 -6029.089737 
100472.28448 15516.996483 -5675.11354 
99864.044569 15953.053949 -5427.179088 
99345.439411 17449.345476 -5745.405768 
99451.786138 16975.479973 -5138.436981 
98912.977475 18467.611827 -5402.837562 
99489.832562 17930.655982 -5711.963498 
101054.578799 13076.237614 -3706.009606 
100996.666555 13437.833228 -4206.986851 
101373.767691 12232.71365 -3873.686129 
100902.048979 12567.804881 -3683.255036 
100953.432216 13794.208606 -4735.15829 
100927.047755 14147.11012 -5291.70729 
101326.691424 12850.03236 -4887.739876 
100767.665528 13174.986313 -4705.325374 
101679.688544 11369.2367 -3990.447512 
101672.003065 11629.959627 -4471.872905 
101965.193117 10489.069909 -4052.145233 
101485.46384 10721.821019 -3923.25066 
101149.714283 11906.13294 -4317.889354 
101200.345702 11654.640354 -3829.976206 
100827.781044 12874.881527 -4181.179997 
101341.530125 12545.519081 -4367.243045 
100338.8494 14525.675099 -5077.797771 
100411.565067 14171.618912 -4520.912241 
99952.309624 15540.617999 -4842.295064 
100514.690352 15111.811605 -5086.900433 
100497.781062 13816.294823 -3991.156054 
100595.941724 13457.618288 -3487.534909 
100164.635791 14727.854247 -3753.314113 
100644.274323 14304.605695 -3996.424596 
99568.986247 16513.310676 -4557.938257 
99696.018646 16058.807733 -4003.037707 
99192.192573 17444.443502 -4231.814432 
99694.930326 16933.124276 -4527.215312 
100190.551541 15591.950144 -4271.963514 
100102.234892 16040.368892 -4829.652159 
100572.641868 14708.541583 -4527.770339 
100052.937849 15133.237838 -4284.681563 
102489.727666 7754.668183 -1272.942138 
102423.552894 8041.04182 -1548.000798 
102618.997006 7212.446379 -1357.124121 
102404.889113 7471.873007 -1206.337749 
102363.362951 8312.852911 -1844.211337 
102310.689615 8569.334539 -2161.338842 
102513.206693 7693.388729 -1905.400466 
102246.719469 7924.041306 -1773.028875 
102730.719782 6668.535881 -1408.252735 
102682.584958 6879.466752 -1659.78235 
102821.428039 6125.773339 -1426.419659 
102623.983635 6312.748726 -1318.701842 
102450.818902 7087.04171 -1540.476074 
102522.692525 6891.431441 -1279.233762 
102323.138683 7706.327786 -1479.672318 
102562.960957 7460.84856 -1621.525432 
102267.143127 8809.769116 -2499.185931 
102234.455575 9033.462477 -2857.596776 
102438.7048 8106.946862 -2530.180157 
102115.812008 8305.332052 -2418.407202 
102214.533245 9239.714946 -3236.457105 
102209.520249 9427.788312 -3635.689435 
102408.931849 8445.096678 -3228.574458 
102024.857058 8607.460987 -3139.756635 
102581.742439 7404.136326 -2517.447419 
102567.750836 7538.84888 -2835.75379 
102690.422933 6706.065114 -2461.092636 
102405.982929 6818.271291 -2400.134955 
102233.646374 7673.812977 -2762.254299 
102274.344037 7559.07765 -2431.377433 
102064.47411 8466.857594 -2769.753625 
102417.295164 8285.975613 -2870.367845 
102887.560318 5587.347296 -1412.164952 
102846.732265 5726.262792 -1631.346443 
102925.561492 5056.747101 -1366.551743 
102763.918019 5175.206298 -1299.118234 
102810.97496 5845.384182 -1863.443304 
102781.326357 5943.189749 -2107.448058 
102844.638435 5246.306282 -1776.779885 
102654.813289 5324.845278 -1733.906569 
102932.00272 4537.69133 -1291.228792 
102884.25003 4611.309181 -1470.275265 
102903.717722 4034.036182 -1188.474808 
102798.060659 4091.217792 -1156.537425 
102738.03056 4677.880072 -1433.609201 
102795.854163 4624.389339 -1242.271761 
102707.219354 5261.219755 -1510.900014 
102883.251199 5161.94887 -1566.509549 
102545.238401 6036.766 -2056.586368 
102592.741366 5959.936921 -1799.608564 
102449.450869 6724.60189 -2107.090801 
102711.699091 6591.634967 -2180.988497 
102646.571524 5860.271118 -1555.445665 
102705.508774 5739.375788 -1325.057947 
102559.849427 6470.348316 -1565.618968 
102778.513212 6300.076745 -1662.850718 
102325.164726 7422.121473 -2117.067707 
102384.493801 7264.345756 -1819.920792 
102177.101679 8124.041418 -2086.054301 
102471.252835 7909.081838 -2208.402762 
102640.735142 7073.179047 -1928.84591 
102606.614006 7248.479012 -2214.926295 
102741.507288 6455.823325 -1914.620716 
102501.215296 6608.112893 -1828.650455 
101776.413763 9622.64204 -3528.481171 
101817.069734 9450.851836 -3118.694692 
101529.680374 10513.131873 -3473.833637 
101969.775844 10267.182309 -3611.521522 
101870.726053 9260.248764 -2729.702584 
101935.508523 9051.622568 -2361.545436 
101657.826155 10048.620806 -2643.33425 
102025.643122 9776.638994 -2798.234928 
101265.25225 11391.295762 -3366.799275 
101342.556361 11115.724695 -2927.782745 
100988.712554 12252.583776 -3210.720353 
101421.058525 11910.650014 -3406.12823 
101744.285762 10810.348147 -3101.952387 
101704.578705 11096.126311 -3534.014318 
101990.696825 10029.608806 -3193.641095 
101587.772662 10288.637811 -3047.285933 
102009.725756 8825.691243 -2014.321767 
102091.811133 8583.138827 -1688.189801 
101827.146093 9523.093386 -1902.727325 
102129.735567 9225.723945 -2074.297737 
102180.274578 8324.64778 -1383.365314 
102273.662056 8050.927445 -1100.116011 
102025.43823 8938.956096 -1252.112993 
102268.073234 8617.309968 -1439.569974 
101633.055894 10212.99867 -1752.56683 
101744.715916 9886.301135 -1407.826302 
101430.702902 10892.884575 -1565.436917 
101723.952172 10515.986261 -1784.896753 
102013.256552 9537.738402 -1610.846043 
101932.826699 9875.362073 -1948.342249 
102195.415229 8928.485813 -1745.736269 
101923.386926 9238.17298 -1566.102056 
100704.703126 13093.822042 -3009.306695 
100822.864955 12723.407971 -2555.959515 
100416.9687 13913.073736 -2766.399424 
100822.427583 13486.2369 -3013.308501 
100949.322095 12345.11563 -2127.189499 
101083.01447 11957.900873 -1722.885556 
100701.732151 13079.737294 -1877.915278 
101038.594579 12642.690578 -2132.468988 
100128.438207 14709.472 -2485.788599 
100287.452553 14255.912749 -2028.132605 
99841.321038 15483.043322 -2171.086459 
100210.58057 14983.279874 -2462.522961 
100642.150476 13787.633704 -2301.015795 
100516.456875 14244.700987 -2755.828614 
100926.337677 13068.317044 -2560.278895 
100555.730186 13499.56607 -2309.950562 
101399.221245 11551.424391 -1959.569372 
101299.021912 11946.466396 -2358.436701 
101634.361382 10881.616717 -2153.469814 
101308.484586 11248.968862 -1940.457961 
101207.280043 12331.694702 -2782.277339 
101125.319561 12707.940466 -3231.324212 
101481.395776 11578.522745 -2963.867931 
101086.239952 11928.227733 -2762.974934 
101860.145252 10200.041663 -2309.328531 
101796.748271 10511.694525 -2693.818364 
102072.592302 9508.568498 -2425.140957 
101738.136824 9793.346901 -2261.827188 
101430.605626 10827.621671 -2512.532815 
101527.904156 10526.7593 -2120.820668 
101193.255596 11593.91201 -2339.62384 
101553.022863 11235.679127 -2546.415619 
98693.916513 20586.010733 -7286.066366 
98599.803992 21213.080583 -7981.979071 
99269.093427 19541.194905 -7699.084203 
98564.60222 20154.954974 -7346.739639 
98519.943677 21878.554483 -8705.716101 
98444.132354 22587.883929 -9451.557821 
99197.148597 20757.648425 -9178.246603 
98394.548607 21460.602876 -8774.328116 
99877.048486 18423.629407 -8061.671802 
99890.515311 18962.336922 -8809.440142 
100511.633286 17226.750902 -8357.404418 
99671.120701 17737.203436 -8070.023213 
99057.244066 19570.515495 -8463.311952 
99104.476858 18992.471439 -7737.765504 
98470.896979 20783.377514 -8047.98847 
99225.234577 20130.483003 -8422.757447 
98401.250322 23355.218677 -10234.460418 
98353.940413 24171.677409 -11023.895595 
99210.932176 22163.987272 -10794.436707 
98295.279532 23000.86535 -10313.202618 
98397.807872 25124.932105 -11871.037116 
98323.175584 25995.826715 -12646.063936 
99331.941656 23853.124935 -12541.278585 
98312.600881 24846.981428 -11938.813421 
100123.409463 20842.299176 -11305.267297 
100276.293568 21594.962159 -12226.147854 
101114.604237 19356.787024 -11718.809705 
99895.570024 20082.836332 -11310.238711 
99127.544249 22489.819185 -11713.790974 
99052.061049 21634.25169 -10852.610779 
98266.621022 23879.595967 -11127.829386 
99272.760722 22973.450051 -11660.522212 
101163.226814 15946.710719 -8567.564093 
101320.147844 16338.973718 -9341.983012 
101813.959198 14583.260517 -8670.187721 
100857.361072 14927.158274 -8485.243721 
101533.098595 16754.725497 -10166.556745 
101814.45661 17202.251311 -11047.457467 
102359.58283 15179.241925 -10251.919933 
101175.009675 15561.095646 -10049.280559 
102437.803545 13142.165987 -8642.47182 
102750.02478 13319.004915 -9376.418257 
102998.850905 11636.928825 -8462.781625 
102019.465252 11747.705012 -8418.113109 
101653.030514 13552.39886 -9260.845209 
101452.031452 13376.834707 -8523.664489 
100989.248969 15235.977487 -9243.906865 
102050.20951 14876.328853 -9435.978191 
100585.691938 17752.312915 -10744.957915 
100429.643226 17255.350939 -9890.892379 
99779.486001 19403.762095 -10435.288428 
100886.411216 18754.711932 -10799.987671 
100323.982863 16802.732643 -9086.054149 
100258.36539 16382.524613 -8326.362188 
99675.700994 18246.289163 -8817.346519 
100593.36277 17700.665526 -9124.102039 
99028.149086 20878.744018 -10018.548514 
99028.213202 20194.527024 -9224.168162 
98325.690256 22193.013158 -9534.375624 
99194.556494 21433.514608 -9970.919807 
99932.746548 19538.261506 -9597.666707 
100006.349307 20159.973676 -10427.616933 
100715.005394 18206.557822 -9936.412418 
99710.615177 18797.822234 -9604.20785 
98419.267824 26933.143141 -13528.920856 
99671.074506 25884.293104 -14420.629542 
98629.941067 27507.91614 -13670.168931 
98780.94038 29634.282114 -14559.277671 
99747.749359 29924.324808 -15652.656059 
100459.272782 28168.473325 -16502.969668 
100388.238601 27955.58577 -16292.912649 
101257.741377 24576.698707 -15352.06993 
101633.944812 25677.665723 -16381.414174 
102992.61128 22715.005128 -16104.449081 
101083.929026 23995.419748 -15334.014263 
100022.290743 26947.242858 -15512.186891 
99629.95938 25740.548898 -14535.222702 
98582.197759 27484.210222 -14865.065765 
100191.848639 27521.868216 -15499.306189 
103697.139999 31109.142 -19111.427639 
106530.813475 31959.244043 -20820.396485 
109088.756304 29199.501071 -21779.486381 
108932.691447 28693.624962 -21656.860739 
105203.472295 20479.904951 -16704.876072 
106623.336538 21535.840367 -18199.030038 
107617.605775 17659.008279 -16793.834101 
104617.135974 18531.039271 -16337.980019 
108735.63248 23077.28487 -20002.155593 
111223.465418 24574.134533 -21774.938921 
113075.073398 19230.978042 -20224.533851 
108052.655798 20739.81689 -19367.272627 
109884.065362 14245.634396 -16034.83893 
112677.774307 14237.24292 -17213.01739 
111311.073112 10435.451839 -14148.595914 
108584.462857 9913.923954 -14524.792039 
108697.726729 14389.850233 -17209.550559 
106657.896648 14462.540148 -15974.455588 
106001.191674 19466.83037 -17793.196132 
109891.101961 18376.361638 -18392.985042 
106758.541018 26734.524964 -20267.388426 
104877.921283 24774.490307 -18783.684513 
104050.464969 27944.81606 -19244.764014 
107013.277286 27917.093203 -20563.781578 
103695.590948 23128.029015 -17334.995029 
102676.980537 21663.33269 -16041.816517 
101570.42697 25458.622259 -16554.741905 
103941.014858 23929.881346 -17460.862851 
101725.076996 27675.453312 -17822.933926 
101737.610296 30521.283089 -17630.673292 
102351.158172 27011.333078 -17585.99518 
105067.201945 25403.06773 -18842.742164 
102653.550362 27873.164493 -17754.79296 
103452.262051 10090.470383 -8114.541741 
103860.580189 10000.927441 -8692.65878 
103746.947328 8535.476821 -7590.552568 
102939.454442 8381.111686 -7701.034127 
104370.617701 9857.64314 -9273.356663 
105006.028405 9648.042999 -9844.87659 
104629.814784 8017.322149 -8459.304364 
103728.583723 7717.529867 -8659.059173 
103831.01307 7012.970606 -6897.225131 
104163.804833 6673.422333 -7192.455641 
103658.690367 5568.751596 -6057.195964 
103286.366033 5197.480471 -6288.061555 
103548.152349 6320.314962 -7417.834345 
103207.753462 6738.163934 -7075.827099 
103288.297337 8093.317939 -8191.511059 
104145.930935 8312.910256 -8040.808736 
105796.400031 9354.697674 -10387.969612 
106777.085072 8952.786739 -10869.574779 
105895.926941 7138.738696 -9091.389481 
104973.982093 6613.304042 -9426.889503 
107987.238716 8406.869436 -11233.735051 
109454.05476 7666.651572 -11381.410774 
107548.902284 5712.230353 -9081.207348 
106914.09799 4830.064386 -9623.787016 
105395.198745 5092.619493 -7497.606091 
105782.6845 4329.314074 -7224.172208 
104231.087995 3336.498036 -5737.825689 
104649.314329 2605.947268 -6167.963378 
105783.487654 3504.40417 -7718.741068 
105077.156314 4409.497562 -7914.333538 
105838.645347 5824.65325 -9637.79497 
106684.878568 6509.201665 -9208.598618 
103197.826573 4248.225905 -5109.550922 
103202.529828 3770.395808 -5066.767531 
102436.227455 3090.488952 -4107.094031 
102713.570167 2634.039512 -4374.596484 
103125.751535 3225.265528 -4891.559328 
102904.737838 2616.28607 -4543.835551 
101782.234631 2082.081805 -3586.982525 
102620.088901 1539.51891 -3893.271403 
101386.490449 2123.029456 -3111.360302 
100849.755262 1674.787952 -2816.195933 
100086.354531 1357.684472 -2184.425368 
101039.683134 967.312871 -2394.950789 
101771.684431 1218.513973 -3068.501732 
102014.15419 1683.590513 -3360.526532 
102701.971569 2101.876612 -4208.773556 
102188.219936 2606.39789 -3917.841351 
103583.808144 1979.886976 -4911.16933 
103458.169408 2651.087726 -5228.472775 
104262.53654 3391.527904 -6453.00095 
104198.511468 4030.078032 -6071.402402 
103297.87247 3266.584949 -5366.710749 
103132.414831 3814.499795 -5371.046021 
103568.480796 4689.008766 -6459.754182 
103860.144333 5140.804538 -6182.399875 
104472.209194 5172.082829 -7880.663266 
103965.768192 5803.833462 -7697.712635 
104281.513396 7232.992897 -9082.250911 
105210.418659 7632.808215 -8821.91225 
104544.297444 6250.039886 -7417.339681 
104963.502001 5728.343888 -7536.243628 
104052.025273 4630.399961 -6201.146177 
103895.859037 4088.578071 -6529.480969 
107912.877248 6836.02289 -11913.702731 
106448.359817 7817.047405 -11621.617573 
106771.564578 10627.066914 -13795.942264 
109144.762497 10940.9983 -13554.699333 
105327.588178 8537.702544 -11150.629552 
104460.51741 9066.22704 -10590.588307 
104438.497648 11400.508058 -12166.617934 
106211.019575 11482.451819 -12078.122766 
105222.628824 14416.289324 -14794.158177 
104152.986765 14310.554672 -13706.967295 
103563.535934 17796.842184 -15057.294937 
106028.054017 17099.856928 -15421.465506 
106331.831193 14064.779421 -13806.054638 
107834.702524 14170.952357 -14883.097857 
107484.437391 11270.399152 -12836.930872 
105441.351068 11096.706483 -12986.497766 
103786.141019 9453.457057 -9988.6303 
103259.343431 9734.541333 -9371.839798 
103087.459648 11705.794382 -10578.530446 
104453.823419 11679.064954 -10564.215182 
102848.150481 9933.870793 -8755.34479 
102528.319743 10068.491624 -8148.236096 
102286.006274 11772.276586 -9106.749474 
103373.176774 11683.958408 -9135.559711 
102277.426373 13882.120314 -10870.165065 
101922.042957 13720.77615 -10041.522985 
101426.57096 15909.301242 -10908.065758 
102762.012576 15497.405402 -11125.366726 
103152.458735 13487.250536 -10154.212753 
103669.767612 13646.820815 -10980.322381 
103849.027448 11700.154672 -9836.556276 
102634.673649 11761.300538 -9826.861523 
102024.242724 20581.22317 -14796.292441 
101483.436545 19682.496946 -13680.399054 
100603.726685 22778.954084 -14270.038612 
102356.093224 21688.348251 -14902.472852 
101096.369745 18942.596854 -12630.420711 
100799.701921 18307.12585 -11657.168671 
100053.218948 20851.353297 -12243.928902 
101423.08784 20031.56659 -12705.341883 
99446.723091 24595.616994 -13551.884987 
99207.428763 23437.529009 -12638.26213 
98297.608208 25903.048213 -12840.111317 
99511.456239 24819.409259 -13493.59899 
100512.050261 22447.389412 -13213.067297 
100785.660372 23385.769047 -14228.425092 
101816.831626 20793.747921 -13757.399147 
100301.53442 21745.534319 -13219.690475 
102184.482955 17693.301156 -11994.51099 
102664.243226 18241.11233 -13016.119368 
103283.234573 15837.226561 -12064.701522 
101763.673764 16290.623942 -11826.598271 
103296.148101 18868.879556 -14130.221313 
104103.744213 19597.086327 -15342.509035 
104846.41197 16621.769794 -14191.375858 
102799.174186 17212.115756 -13882.558849 
104336.610876 13797.367761 -11860.284804 
105199.529386 13937.27999 -12799.323711 
105223.990137 11611.13404 -11314.207414 
103675.188298 11592.625813 -11359.6963 
103354.054951 14180.650029 -12694.404392 
102742.760654 14035.654502 -11752.789737 
102207.080227 16717.257419 -12816.203921 
103962.378634 16208.40579 -13082.552025 
102837.949493 3549.666031 -1061.218734 
102766.274773 3568.296394 -1195.082292 
102732.499846 3088.370191 -913.031238 
102701.516592 3094.889696 -909.810437 
102690.541247 3564.850031 -1331.20693 
102609.693705 3537.926712 -1467.507286 
102543.773397 3058.780043 -1134.298864 
102527.772475 3022.287457 -1156.533527 
102585.872819 2653.711603 -748.084281 
102472.192443 2630.820329 -836.117903 
102397.402397 2248.894519 -571.077784 
102455.180988 2218.072167 -588.274493 
102495.717249 2596.586342 -856.12071 
102597.920825 2639.773453 -756.173448 
102616.797528 3070.038908 -1032.902391 
102642.061087 3084.399135 -1023.731634 
102522.198688 3486.145141 -1601.533642 
102425.909276 3408.165145 -1730.406626 
102315.789672 2938.050097 -1345.786636 
102332.487479 2853.774445 -1395.943825 
102317.885548 3302.725126 -1850.741949 
102194.156487 3168.701377 -1958.566856 
102025.53234 2718.260562 -1525.181612 
102101.775418 2582.358028 -1604.969761 
102047.093113 2434.428039 -1077.862312 
101865.961235 2324.210545 -1142.426255 
101717.326706 1979.094897 -806.187037 
101877.187981 1868.077598 -869.198286 
101988.292787 2200.460797 -1213.904697 
102134.557644 2333.943337 -1136.166305 
102222.827993 2731.227535 -1505.986284 
102180.434283 2840.932452 -1441.153422 
102167.35526 1876.639018 -387.134945 
101994.959488 1827.59911 -434.235716 
101897.000426 1539.070249 -201.670325 
102050.02352 1485.533216 -230.37078 
101800.792929 1760.910789 -476.640727 
101580.702774 1676.519441 -512.424331 
101456.565001 1411.003898 -257.264485 
101670.127732 1325.360134 -303.870395 
101588.639859 1237.62961 -20.237268 
101344.9542 1177.847714 -37.049942 
101245.597132 973.01348 151.636919 
101490.603204 910.840763 119.801441 
101576.605912 1104.264976 -76.022911 
101788.716911 1178.125199 -51.470631 
101870.632418 1413.175542 -269.704797 
101690.170517 1482.813658 -231.96014 
101770.637481 1578.3191 -567.083291 
101956.45831 1680.879885 -521.167068 
102044.997783 1985.966743 -808.9381 
101920.061074 2076.397744 -757.493964 
102122.68677 1765.717542 -468.5009 
102272.519795 1832.61918 -411.192045 
102331.202764 2160.85473 -666.039915 
102256.258436 2210.95643 -637.665335 
102266.00551 2444.279683 -1048.638102 
102385.637827 2531.661475 -954.392006 
102433.473955 2950.527545 -1278.430671 
102435.827701 3010.35365 -1242.509301 
102346.365822 2587.175903 -921.980061 
102205.788623 2521.936211 -1003.415824 
102098.278193 2153.612828 -700.523854 
102195.285762 2083.575704 -740.360906 
102049.405049 3005.198228 -2049.232856 
101876.553579 2811.681281 -2117.334432 
101633.431906 2394.860713 -1643.002434 
101809.549883 2205.681008 -1752.515434 
101666.222365 2588.169873 -2156.652741 
101406.018643 2335.509711 -2160.162879 
101073.168618 1970.321813 -1661.622344 
101409.036009 1730.88201 -1797.721738 
101125.203659 1858.423059 -1242.81577 
100782.734275 1661.328005 -1232.375098 
100532.669292 1398.577831 -863.712187 
100931.387679 1212.36979 -966.500457 
101156.32156 1449.395815 -1351.144523 
101414.912675 1666.463275 -1351.473202 
101626.907502 1979.52769 -1790.864631 
101379.897462 2194.648829 -1667.372501 
101079.620188 2055.760325 -2120.157639 
100665.389275 1752.737226 -2028.627206 
100235.809254 1460.824131 -1537.012385 
100817.850714 1183.194286 -1690.544339 
100135.279 1432.961511 -1877.594487 
99453.969467 1106.466091 -1660.050474 
98944.07606 908.292272 -1229.462491 
99892.083311 622.332633 -1379.776047 
99272.960945 984.559028 -1014.511785 
98537.644484 749.65204 -871.914785 
98218.977525 621.241434 -575.183236 
99100.863553 410.64869 -682.741676 
99456.835694 504.131901 -998.957547 
100018.537997 736.581153 -1146.767609 
100409.171439 898.673525 -1563.408319 
99661.248721 1185.734236 -1407.884933 
99867.261713 1015.319482 -520.088551 
99335.706319 849.146205 -474.74684 
99143.324661 705.945844 -224.846792 
99727.979821 551.047384 -304.729082 
98710.244125 680.635759 -411.874915 
97972.858698 515.739812 -332.589766 
97794.678736 426.594902 -131.427766 
98588.901055 276.214355 -202.483558 
98376.77699 465.388777 11.383923 
97666.406453 349.813913 39.184433 
97584.744395 287.393726 179.968139 
98290.048022 176.34847 130.201073 
98416.482588 220.317836 -21.252052 
99031.073976 331.781736 -53.955409 
99203.521242 408.533165 -259.655733 
98519.624745 563.940004 -181.9283 
98814.223369 339.211747 -419.881195 
99421.5737 499.066018 -504.767091 
99691.325964 606.331249 -797.317743 
98958.032345 818.801115 -686.106832 
99933.026915 669.223036 -569.352166 
100365.718785 842.076148 -612.888127 
100588.46349 1013.758671 -938.252916 
100096.271548 1213.361099 -829.510963 
100474.325113 978.222925 -1252.968397 
100847.523572 1218.171624 -1319.861898 
101144.425054 1463.531015 -1766.523078 
100698.166508 1724.378534 -1620.039457 
100371.752549 1447.035705 -1193.210569 
99875.257285 1219.565361 -1121.568937 
99577.388987 1018.353938 -770.781134 
100180.510758 809.563257 -882.562739 
100872.164262 745.142816 308.618901 
100551.148263 687.985844 306.614133 
100473.509638 553.164512 445.731398 
100796.827803 494.021286 417.451251 
100189.816285 622.571813 306.034936 
99782.284321 550.267476 306.641722 
99710.818119 443.352538 441.697836 
100114.21357 370.56276 407.013986 
100055.553734 395.483063 558.501138 
99659.143721 350.51361 552.838235 
99624.820384 269.818153 643.088009 
100003.364068 221.517511 622.534946 
100050.883448 290.695528 525.672833 
100409.87946 341.063919 533.741892 
100475.133638 434.60376 412.396619 
100114.033425 501.195451 444.303558 
99321.868951 472.822861 307.720392 
98800.916959 392.401868 307.844848 
98749.192132 316.515659 428.508614 
99250.884007 236.206073 391.497161 
98210.839852 311.746526 304.78797 
97542.652573 234.331527 295.482676 
97533.272821 188.822923 389.493411 
98150.400526 110.279787 355.829812 
98169.156188 200.113251 502.352782 
97552.16641 150.941493 466.135761 
97592.870357 118.178963 526.387422 
98128.081337 63.195251 504.739625 
98126.808796 84.192693 438.690465 
98694.04074 132.676861 473.475862 
98734.379854 170.610485 377.675444 
98177.010092 251.547428 413.888011 
99188.290282 173.282325 696.393499 
98726.70478 145.15669 667.90884 
98753.09687 102.464582 716.222765 
99156.729621 68.080154 704.572961 
98216.37232 116.776626 627.15305 
97652.716603 89.720866 571.349738 
97729.648956 63.935177 605.905893 
98190.059788 29.052138 595.837164 
98325.946712 53.66467 701.350387 
97816.201029 41.341863 633.219601 
97913.622481 23.459386 650.891407 
98310.192528 1.132712 646.700994 
98244.193022 12.391192 625.612721 
98730.044998 25.624488 693.604504 
98697.377975 47.400449 658.08289 
98265.295692 82.784779 669.586064 
98150.125712 46.662506 556.535895 
98678.575365 72.719883 611.080384 
98676.485077 100.738345 550.455298 
98182.808173 155.594945 572.450216 
99154.636246 101.729354 651.376953 
99583.442354 131.891389 680.352473 
99608.331532 181.139645 606.463253 
99194.023654 233.019695 628.36761 
99199.080465 184.72696 497.528812 
99649.206197 237.97946 514.119102 
99708.322668 303.728619 400.51953 
99258.014483 381.176697 436.954872 
99216.360827 301.846794 542.799338 
98721.591722 251.103509 526.724131 
98715.081469 194.404723 605.570694 
99167.904681 140.326449 583.204939 
98203.089889 140.678168 254.242191 
98801.190944 215.678459 260.302522 
98898.610719 268.632102 117.887468 
98275.599379 382.358093 172.080648 
99326.26346 296.628523 262.088137 
99788.064407 380.140218 262.503942 
99890.965317 469.37499 96.540031 
99410.986066 579.036227 151.628495 
99561.163487 451.446119 -81.535865 
100019.700153 573.948674 -101.435969 
100177.023195 696.981542 -336.105228 
99679.730857 846.672032 -257.400743 
99528.983201 702.556147 -35.227617 
98993.326035 584.360306 -14.457832 
98880.751872 480.872482 161.519345 
99428.51159 367.651173 105.815527 
100195.220919 462.967168 263.469853 
100555.225443 542.442633 266.107194 
100651.527444 666.983896 91.556088 
100284.952884 762.073703 140.427678 
100874.531187 616.438855 270.898673 
101158.665404 683.241055 277.867307 
101243.303701 839.012717 106.208933 
100963.522434 913.076346 144.40147 
101069.991799 919.415116 -108.993653 
101338.560535 1017.655677 -95.625572 
101444.579334 1222.774643 -331.100519 
101191.368599 1324.004449 -276.030319 
101069.607007 1104.851388 -49.319179 
100757.251863 1019.398629 -55.992567 
100645.211537 842.396276 140.516756 
100965.322773 757.237274 96.567481 
100734.079516 1011.641257 -636.194479 
101049.975962 1173.136554 -640.976859 
101222.327651 1400.337504 -970.324518 
100901.612111 1570.083282 -875.674153 
101323.072983 1322.997998 -629.428666 
101561.193138 1458.649671 -603.973243 
101687.811425 1730.377845 -918.291793 
101484.718685 1861.817006 -843.996483 
101634.363899 1865.540369 -1325.665916 
101823.27227 2044.060328 -1278.372551 
101965.655738 2407.032214 -1688.739086 
101845.576464 2569.582252 -1593.947681 
101656.890766 2191.162319 -1193.871295 
101412.905875 2035.59826 -1228.624327 
101215.567876 1725.109589 -868.129869 
101471.708218 1573.887158 -953.108393 
101329.574194 1574.693436 -539.541781 
101041.139161 1456.112687 -555.87951 
100888.765936 1222.558578 -286.720888 
101189.13644 1106.567588 -349.594026 
100707.75759 1321.980216 -559.336001 
100320.175719 1174.156952 -547.948293 
100142.04175 981.753621 -278.393293 
100563.419093 840.8519 -353.51449 
100401.553546 922.659491 -56.184889 
99995.041388 816.295431 -49.308028 
99876.109439 673.623519 144.255731 
100295.814093 570.194648 91.564286 
100417.917783 695.038912 -112.61781 
100765.342528 811.147215 -114.964517 
100897.842415 978.456867 -357.595463 
100541.769638 1107.878417 -287.906895 
100416.39984 770.548985 -1839.357056 
100869.063091 1101.07289 -2060.172267 
101403.04129 1357.938989 -2652.793524 
100707.273801 1739.837375 -2439.583958 
101213.674987 1435.36787 -2206.732443 
101479.572636 1760.571167 -2288.258937 
101851.711067 2123.386779 -2896.306436 
101519.410267 2454.479517 -2705.179854 
102164.685249 2140.061164 -3531.223193 
102257.130664 2569.535493 -3603.296312 
102688.375658 3122.524063 -4423.315791 
102580.433021 3525.894647 -4183.870031 
102019.615464 2937.346112 -3388.051797 
101759.843523 2547.348773 -3296.024191 
101171.508858 2109.159858 -2609.768602 
101663.00099 1748.632856 -2814.973896 
101688.478852 2067.338362 -2314.674402 
101856.311122 2349.585843 -2295.476173 
102099.524198 2789.249432 -2872.662272 
101983.44462 3050.55753 -2718.571076 
101994.682918 2603.793076 -2239.351908 
102112.057379 2828.127883 -2154.005208 
102258.321865 3317.977222 -2678.681827 
102265.831026 3507.620104 -2564.813543 
102376.883542 3623.089954 -3415.945602 
102398.739669 3889.321858 -3266.880291 
102525.715592 4557.345928 -3921.872535 
102717.984294 4760.092461 -3796.045148 
102490.741683 4088.170066 -3145.616669 
102421.493305 3862.479797 -3271.427379 
102140.429937 3296.648549 -2657.994024 
102185.745971 3071.517693 -2791.966312 
102977.283987 4292.755163 -5277.033375 
102840.05479 4703.43818 -5111.926563 
103049.31182 5622.50582 -6046.205267 
103466.295918 5922.795054 -5856.905584 
102723.875907 5050.828996 -4896.25229 
102629.434568 5339.977302 -4645.446328 
102697.584563 6258.052292 -5436.982457 
103141.056134 6441.42975 -5317.189761 
102933.437687 7072.288018 -6695.224255 
102715.246193 7335.1493 -6292.193367 
102665.119542 8596.781006 -7201.512126 
103420.91955 8697.227564 -7124.505657 
103308.680915 7487.498135 -6187.67402 
103546.847552 7280.958277 -6556.493494 
103292.384299 6211.203188 -5604.585828 
102854.382932 5973.171525 -5757.025313 
102938.784368 5538.70814 -4519.426699 
103008.549429 5300.281826 -4740.36994 
102713.865296 4524.363733 -3963.792691 
102559.928236 4275.854368 -4116.206277 
103081.658542 5008.954925 -4923.387173 
103149.568975 4659.83627 -5053.12196 
102659.146752 3909.587872 -4172.591097 
102646.95009 3559.926762 -4382.503025 
102329.030228 3595.989337 -3361.444435 
102200.970555 3287.585863 -3404.703904 
101782.220255 2769.395926 -2737.678787 
101991.897564 2472.213799 -2911.19984 
102314.184954 2962.498649 -3597.097904 
102350.825089 3314.229709 -3529.891126 
102601.704463 3944.131937 -4274.308292 
102697.968336 4241.776564 -4093.716073 
102214.59092 3021.921812 -2046.115669 
102306.744031 3185.292828 -1921.3966 
102382.333688 3704.818098 -2385.082959 
102456.296687 3827.607703 -2309.821302 
102391.724034 3318.881129 -1784.696508 
102471.80657 3423.66363 -1640.113806 
102497.096546 3958.066307 -2041.030401 
102602.31298 4020.844281 -2001.055075 
102472.513083 4448.180247 -2694.228262 
102505.094541 4561.561857 -2482.212496 
102490.781304 5242.813178 -2963.895901 
102726.683663 5295.415516 -2927.119455 
102672.148 4621.402785 -2442.624953 
102632.669749 4539.271635 -2636.057465 
102532.942721 3939.288461 -2159.801347 
102439.946319 3847.397181 -2216.960378 
102548.569294 3500.8264 -1491.108318 
102623.061911 3551.679002 -1340.602131 
102613.638286 4090.339117 -1680.2347 
102728.372633 4100.170863 -1671.792252 
102695.930037 3577.598686 -1191.067106 
102767.505559 3579.995639 -1044.598697 
102735.379674 4115.07466 -1325.94687 
102846.246722 4078.654304 -1345.321025 
102631.994883 4713.519627 -1840.312767 
102683.194344 4708.15931 -1633.474039 
102607.683715 5364.380942 -1966.888054 
102810.402331 5308.211121 -1996.063485 
102838.230834 4663.30369 -1656.924791 
102794.152095 4692.051814 -1849.583096 
102787.923514 4101.217678 -1507.048827 
102673.835423 4115.318988 -1501.127716 
102444.290961 6078.45829 -3186.484546 
102453.439545 6112.097379 -2892.006385 
102341.144329 6944.419983 -3356.571537 
102692.181811 6904.761123 -3372.554185 
102474.259369 6114.838239 -2604.266013 
102505.312283 6089.029614 -2325.252468 
102372.325444 6887.430907 -2706.846208 
102679.07652 6797.562077 -2753.915962 
102189.865121 7830.164146 -3470.87184 
102204.83309 7764.76748 -3109.01955 
101998.933804 8725.833498 -3528.05816 
102415.755777 8583.133 -3604.35925 
102566.416101 7651.201555 -3169.079455 
102579.703551 7739.617387 -3516.50303 
102679.138256 6864.426416 -3058.235634 
102350.113934 6930.194331 -3026.110324 
102758.812811 6018.070279 -2362.16739 
102744.445717 6068.294791 -2626.171721 
102781.126692 5345.965203 -2222.810925 
102566.793554 5378.006091 -2208.360051 
102739.209994 6091.971874 -2897.726997 
102744.039272 6087.006405 -3174.703328 
102739.110389 5341.614685 -2690.85002 
102507.459975 5319.471811 -2709.269892 
102752.016343 4695.857231 -2046.34954 
102711.5573 4672.935487 -2244.94577 
102666.884048 4073.92189 -1837.338456 
102554.804016 4038.482805 -1861.074998 
102542.597083 4642.181091 -2267.136648 
102584.985628 4692.161656 -2052.274292 
102533.082861 5363.751939 -2456.541116 
102757.268732 5357.753254 -2455.159441 
102281.690387 10150.661928 -7555.756192 
102094.349262 10189.242332 -6980.965521 
101818.442803 11693.63069 -7760.24035 
102705.561666 11563.566189 -7818.522151 
101955.603249 10190.731611 -6425.572673 
101857.077992 10159.941562 -5890.508021 
101566.26657 11512.465143 -6532.180948 
102303.209156 11349.417967 -6613.572484 
101306.040154 13193.802818 -7825.85118 
101204.877807 13002.729382 -7164.201119 
100769.135948 14628.995448 -7768.768846 
101636.693149 14295.979464 -7949.165827 
102014.702737 12761.369601 -7290.927045 
102197.279335 12956.419129 -7948.385344 
102477.673579 11466.990055 -7202.354122 
101670.567426 11614.251899 -7131.984813 
101792.155519 10100.489792 -5376.221544 
101755.541617 10015.129192 -4882.885396 
101460.195402 11249.277669 -5413.41031 
102079.162449 11057.179559 -5514.839249 
101742.955199 9905.982948 -4410.51889 
101750.885877 9774.712442 -3959.072846 
101457.327761 10914.375281 -4395.939172 
101979.648243 10694.959763 -4515.89254 
101100.439755 12375.353469 -5371.259913 
101115.544112 12146.207986 -4831.31696 
100723.763575 13469.496186 -5256.782639 
101332.052316 13147.395338 -5436.392626 
101684.34565 11878.637713 -4979.109655 
101720.111685 12115.665279 -5513.197239 
102016.348138 10884.484262 -5003.256175 
101447.867793 11090.378189 -4892.434775 
100226.371632 15986.297654 -7607.347621 
100222.149693 15607.298715 -6925.717606 
99690.50289 17260.365086 -7360.088022 
100463.667976 16777.285458 -7632.55338 
100241.656823 15240.285132 -6278.420645 
100281.461375 14880.919466 -5663.10419 
99789.624595 16374.133883 -6040.676111 
100447.712499 15927.137387 -6294.062217 
99170.129554 18451.709233 -7043.670438 
99250.921269 17939.538692 -6380.109866 
98669.685632 19564.30983 -6672.958219 
99329.360338 18982.479043 -7007.15345 
99916.156532 17425.245388 -6673.686105 
99886.434125 17913.469204 -7350.468941 
100443.700429 16345.801169 -6945.726028 
99731.035609 16808.175625 -6684.331802 
100920.129863 14498.596236 -5878.146264 
100935.849756 14851.091007 -6496.349242 
101361.005739 13438.946468 -6014.7296 
100698.561066 13760.033578 -5836.929981 
100978.130889 15207.489408 -7148.638626 
101051.818564 15571.270833 -7837.849694 
101507.417896 14011.196342 -7268.494582 
100717.060635 14337.255228 -7090.554508 
101783.448784 12341.479717 -6075.424747 
101879.49229 12556.550876 -6667.365413 
102172.825627 11212.433679 -6051.347305 
101498.101298 11390.321429 -5959.676408 
101140.75996 12803.031906 -6535.990349 
101107.552859 12594.103535 -5938.971404 
100695.078104 14048.518832 -6447.48541 
101417.72846 13726.260236 -6624.650493 
102221.876665 9596.867212 -4055.242311 
102254.475141 9746.012569 -4495.071398 
102440.210008 8698.75095 -3997.197416 
101988.952481 8820.453266 -3934.250582 
102310.722001 9874.104171 -4955.109587 
102394.710559 9979.767588 -5435.221067 
102553.808776 8856.225138 -4831.186903 
102027.730734 8930.799945 -4798.157099 
102609.813586 7802.298952 -3876.884072 
102659.232233 7837.157059 -4248.773889 
102719.884389 6916.413109 -3695.005193 
102347.416317 6927.641391 -3696.544153 
102210.697848 7875.647638 -4235.656685 
102190.966075 7867.937839 -3846.830715 
101997.523933 8889.508541 -4357.834515 
102485.12297 8790.398046 -4406.429295 
102511.418277 10061.278797 -5935.131743 
102666.957104 10116.435986 -6454.320897 
102778.930864 8900.916069 -5722.080684 
102168.601208 8918.555231 -5725.057864 
102868.900507 10142.387211 -6991.858279 
103126.702045 10135.38935 -7546.148815 
103156.956527 8807.51708 -6653.328497 
102451.915661 8752.437722 -6702.007642 
102953.536855 7747.525584 -5411.385467 
103112.410458 7640.805275 -5803.05603 
103013.431281 6619.966347 -5007.210265 
102574.710715 6484.771783 -5098.009115 
102544.637432 7536.929681 -5877.943114 
102414.412297 7685.854179 -5460.332612 
102289.224844 8857.328451 -6208.521377 
102945.62378 8873.550841 -6184.219295 
102759.769803 6051.051663 -3454.453273 
102787.060561 5981.457657 -3733.649996 
102719.657324 5216.822885 -3160.560635 
102483.812913 5131.195361 -3217.136244 
102826.259906 5875.217911 -4008.072216 
102877.187738 5728.919747 -4272.31839 
102717.553154 4952.033473 -3600.980988 
102501.170006 4791.58491 -3701.983851 
102591.325266 4424.458476 -2821.188521 
102545.372092 4274.811313 -2993.063329 
102368.880864 3684.206165 -2446.618387 
102322.622443 3528.782399 -2540.830851 
102420.459352 4114.264161 -3092.09413 
102444.558761 4299.827676 -2899.170736 
102487.163207 4981.79981 -3464.888083 
102717.166009 5103.286351 -3386.942701 
102556.095235 5575.995027 -4371.135441 
102502.551835 5763.705409 -4082.118401 
102481.737289 6659.912133 -4748.823567 
102909.00726 6752.368444 -4683.902963 
102467.199354 5907.493527 -3785.098405 
102448.339703 6011.264156 -3485.223661 
102371.180558 6876.984807 -4043.890784 
102764.02259 6896.904314 -4023.224559 
102318.556898 7788.550171 -5044.932018 
102252.051521 7850.367621 -4635.73836 
102083.264373 8941.613635 -5254.322231 
102650.188067 8893.987402 -5270.287845 
102730.783185 7841.723021 -4630.290673 
102827.675552 7813.039678 -5018.943809 
102826.44544 6843.350757 -4354.174608 
102414.988066 6789.072625 -4395.854122 
102594.752727 -765.510063 -100.02833 
102630.126046 -750.312519 -58.359683 
102579.63611 -787.876348 -54.567436 
102592.862195 -771.811835 -44.642165 
102657.310846 -731.043288 -14.124714 
102676.025224 -707.940887 32.325216 
102622.820755 -752.501777 31.570916 
102657.654685 -729.897161 45.897165 
102556.221893 -806.892008 -11.445292 
102572.310836 -790.354527 30.452053 
102524.79357 -822.324051 29.010971 
102556.65818 -805.43772 39.842852 
102605.740361 -770.797838 42.919713 
102578.845495 -790.511732 -1.122023 
102629.422859 -752.656475 -0.547122 
102605.347172 -772.108468 -12.744302 
102686.007004 -681.288648 80.628145 
102687.009236 -651.411245 130.415785 
102632.020166 -702.785231 126.310389 
102687.97501 -674.728627 144.374417 
102678.794926 -618.670629 181.317397 
102661.131016 -583.461446 232.963204 
102605.275531 -641.128257 226.823542 
102681.704806 -608.971031 247.800773 
102569.994726 -719.994717 169.313752 
102551.570806 -690.55826 218.847282 
102500.344221 -732.711807 209.252899 
102574.36514 -705.426669 227.255561 
102626.945496 -660.988577 238.249718 
102635.116543 -692.463975 187.266056 
102689.536283 -642.987755 195.658357 
102623.258766 -673.277677 176.026107 
102485.655367 -833.976036 66.493667 
102482.733849 -815.318402 108.265288 
102439.134424 -841.690548 100.718308 
102488.874529 -823.245497 112.881668 
102471.546552 -793.399209 152.290297 
102451.880887 -768.464555 198.238995 
102406.427991 -798.611315 185.985546 
102477.038519 -775.092651 201.654265 
102385.582389 -845.351163 131.427527 
102364.198791 -823.869764 172.655249 
102325.376285 -844.883978 158.394919 
102391.918719 -824.230063 172.255726 
102432.838678 -801.883928 187.361192 
102443.879015 -825.875244 144.398955 
102487.148796 -800.60191 156.26226 
102426.893378 -821.701595 142.273798 
102524.298685 -743.187802 215.001918 
102533.616429 -770.434404 167.437294 
102583.034164 -734.653814 177.813152 
102519.329198 -759.752759 161.350309 
102534.29531 -794.92855 121.63511 
102526.571252 -816.398444 77.940988 
102573.932462 -784.949105 83.754214 
102531.327629 -804.820819 70.893933 
102634.140836 -721.478634 137.471041 
102624.263192 -747.693655 89.234729 
102677.262918 -703.815239 94.328268 
102631.794526 -729.299668 78.039263 
102580.130971 -770.189381 74.767289 
102579.437562 -746.642489 121.169171 
102529.582298 -783.881507 115.116445 
102582.809053 -761.262441 129.859785 
102633.781657 -546.205956 284.98724 
102596.500806 -507.348513 337.029552 
102540.688723 -570.441197 330.20395 
102636.923444 -535.733334 353.150226 
102549.024166 -467.349664 388.737689 
102491.060535 -426.679886 439.767369 
102436.222905 -493.991117 433.540318 
102551.707818 -458.404157 457.441127 
102440.045978 -589.020112 372.144596 
102383.271654 -552.026276 423.574349 
102332.48414 -601.827174 410.305309 
102446.014416 -569.125319 432.432932 
102498.00664 -517.966439 446.542911 
102545.169306 -555.50592 394.572578 
102599.496628 -497.36244 405.61125 
102493.579643 -532.723095 382.058586 
102422.282595 -385.813037 489.782254 
102342.317182 -345.219541 538.452711 
102289.466318 -415.225279 533.947893 
102423.886876 -380.465434 557.773281 
102250.735102 -305.359368 585.453471 
102147.040557 -266.674829 630.460034 
102097.365445 -337.576216 628.545795 
102250.755806 -305.290357 651.309129 
102149.90719 -437.162581 573.559458 
102049.842988 -398.899188 620.819985 
102004.594822 -451.701302 607.958013 
102155.261074 -419.316301 630.720298 
102202.156685 -366.555963 643.593806 
102292.887818 -403.82028 596.725033 
102343.183561 -342.33161 605.567513 
102199.307634 -376.052799 582.154893 
102218.700804 -608.8265 444.219788 
102143.387674 -572.189211 493.947204 
102099.457109 -610.061474 473.468097 
102227.951067 -577.99229 495.548679 
102057.843588 -534.782484 542.881289 
101961.715594 -496.949249 590.573477 
101921.277409 -535.525044 569.221647 
102067.350719 -503.092047 591.910719 
101975.573186 -605.653299 497.684997 
101883.333682 -568.231718 544.403134 
101847.922468 -595.798542 516.567655 
101988.266015 -563.343867 539.14249 
102026.644204 -535.786108 567.038418 
102110.427468 -573.493612 519.961076 
102152.822231 -540.740687 544.344491 
102015.435517 -573.1484 521.863472 
102110.269695 -464.535379 613.306169 
102197.484694 -502.095604 565.579745 
102244.24143 -456.751031 583.209066 
102102.705581 -489.749093 560.281964 
102273.967522 -539.559955 516.4099 
102340.054613 -576.592263 466.240776 
102389.274886 -532.015503 483.650888 
102266.281737 -565.179237 461.036212 
102372.188934 -441.728818 548.00133 
102440.447988 -479.907506 497.812694 
102493.275951 -419.295167 508.280205 
102368.303457 -454.680406 484.28966 
102316.220069 -514.118365 474.542789 
102238.557335 -475.698013 524.6675 
102189.804479 -527.696317 511.16589 
102322.124952 -494.435421 534.045941 
102258.91806 -840.258557 181.428611 
102219.961177 -815.390096 221.646699 
102186.633562 -831.487856 200.375355 
102268.560561 -808.116886 216.206815 
102173.110744 -787.845669 263.642199 
102118.224135 -757.866666 307.037893 
102084.356401 -775.517791 281.058211 
102185.026108 -748.12779 299.715501 
102108.973839 -818.627659 215.12574 
102053.729734 -790.003739 253.854957 
102026.415698 -801.777631 225.616641 
102121.94999 -775.373821 243.568617 
102151.835358 -763.140982 272.139197 
102197.950138 -793.765937 232.007525 
102230.794665 -779.278469 257.224767 
102139.345644 -804.773363 239.908452 
102055.14913 -725.709161 351.429444 
101983.721463 -691.641072 396.385139 
101950.776871 -710.361448 366.586408 
102068.887386 -679.914975 387.463511 
101903.761201 -655.939178 441.444686 
101815.069339 -618.885826 486.117837 
101784.789876 -638.089286 453.413029 
101918.857523 -605.618106 475.858398 
101842.815198 -690.686136 376.951409 
101757.091816 -653.944024 418.773058 
101731.976907 -666.928107 382.481956 
101859.690204 -634.436118 404.798698 
101887.967202 -621.462947 441.153474 
101966.115089 -659.234055 398.546664 
101998.19699 -643.389318 431.823321 
101871.912188 -674.979661 410.078887 
101939.450758 -781.081894 231.828296 
101869.620505 -748.573937 268.608611 
101848.574226 -756.72089 233.790402 
101955.619645 -727.185626 253.875443 
101792.965231 -713.950246 306.422962 
101709.442529 -677.465744 344.791652 
101689.483137 -685.929963 305.925754 
101811.12394 -653.421218 328.117696 
101754.314411 -728.903124 231.606822 
101672.091663 -692.644476 266.083859 
101657.260599 -697.884983 225.446667 
101773.365141 -665.400587 247.500812 
101790.886433 -660.138766 288.210747 
101866.235822 -697.8489 252.710898 
101886.845142 -691.15848 290.673345 
101772.238224 -722.299473 269.457644 
101834.065751 -644.963453 367.045952 
101910.387693 -682.717838 327.755999 
101936.826366 -672.201389 363.781175 
101816.494084 -703.535677 342.322441 
101979.347908 -718.85374 288.864113 
102041.015701 -753.110952 250.853775 
102067.851552 -742.931011 282.6955 
101963.640224 -771.212684 263.424958 
102036.047618 -695.616217 355.852312 
102097.909823 -730.339718 313.563305 
102131.108589 -714.918486 343.27309 
102021.543756 -743.962424 323.426649 
101991.020984 -758.975371 294.021076 
101920.751407 -725.784585 335.204442 
101893.688093 -738.383172 302.475246 
102006.177262 -708.454445 322.917104 
101952.311296 -586.423192 508.628571 
102033.002405 -624.186501 463.352097 
102070.446646 -601.087586 492.840857 
101938.329436 -633.029389 470.756191 
102104.610628 -660.87128 417.517792 
102167.349557 -696.192525 371.617819 
102206.515686 -673.62763 398.364584 
102091.764767 -703.690817 377.791885 
102184.276335 -610.542779 471.87319 
102248.468499 -646.626761 423.251775 
102293.045059 -614.526345 445.986293 
102173.657248 -645.939735 424.501106 
102131.302823 -677.319313 402.248115 
102058.137333 -642.118628 450.140683 
102019.530875 -669.091604 424.335599 
102143.114459 -637.947191 445.75269 
102221.41529 -729.867762 326.116246 
102266.990372 -761.620297 281.45045 
102306.402881 -740.275469 304.509849 
102210.172404 -767.344047 286.143846 
102304.247284 -791.182512 238.032141 
102333.351826 -818.298844 196.24755 
102371.737953 -798.739222 214.687639 
102295.071486 -821.768508 199.177853 
102385.538748 -746.007211 278.632467 
102413.459268 -775.173724 232.224876 
102458.324804 -746.984831 248.708264 
102377.541568 -772.664477 231.518022 
102334.663849 -799.435926 215.928612 
102296.797676 -772.29282 260.902206 
102256.724094 -795.841225 241.88059 
102343.294186 -770.668135 258.895624 
102396.047967 -612.847889 415.501361 
102442.222071 -647.978622 364.607933 
102492.634608 -605.392364 380.792907 
102388.721962 -637.267907 359.374271 
102478.830564 -681.637567 313.965587 
102506.112577 -713.483953 263.968913 
102556.565943 -673.907804 277.818399 
102472.402983 -703.062838 258.469418 
102582.211822 -592.122445 342.28102 
102609.389639 -627.414565 290.047197 
102664.245489 -573.079869 300.423183 
102577.833848 -606.715693 278.337784 
102523.933159 -658.672558 269.408651 
102486.842375 -624.699809 320.631311 
102435.275764 -671.132977 308.634665 
102529.402025 -640.443006 329.12517 
102423.524595 -740.78716 245.765179 
102386.261344 -710.662788 294.507768 
102340.034503 -744.128952 278.516802 
102430.791093 -716.5655 297.057957 
102339.865862 -678.406317 344.091925 
102284.098712 -644.347502 394.129657 
102238.319284 -680.457477 375.406641 
102348.382635 -650.017076 396.10141 
102250.414691 -742.70367 307.208953 
102195.319494 -710.94827 354.460649 
102155.246454 -736.5362 331.583679 
102260.87557 -707.834073 351.137789 
102303.256721 -681.436337 374.551537 
102348.874031 -714.663857 326.206759 
102394.218831 -684.137833 346.32134 
102293.69996 -713.292205 326.60956 
102030.660242 -229.583247 673.143683 
101900.932243 -194.469534 713.16493 
101855.935588 -264.254683 714.366913 
102028.755625 -235.931973 735.185569 
101757.094828 -161.678744 750.165187 
101598.275316 -131.508654 783.756414 
101559.960265 -198.037399 788.183741 
101753.125473 -174.909927 806.339341 
101675.973941 -289.332821 748.582718 
101524.697427 -255.614597 784.95993 
101492.32453 -305.23551 774.991833 
101679.243117 -278.435567 795.210574 
101715.020565 -230.53349 804.223734 
101856.610336 -262.005523 768.978137 
101897.998708 -204.247986 772.558953 
101715.148453 -230.107197 752.994574 
101423.479218 -104.20247 813.508491 
101231.579909 -79.941752 838.934035 
101202.69652 -141.058389 846.228257 
101417.538364 -124.005317 861.223259 
101021.309205 -58.839717 859.470398 
100791.249432 -40.935138 874.458692 
100775.611052 -94.615937 883.777797 
101013.737982 -84.077126 895.384199 
100979.707961 -166.302558 867.814657 
100764.349239 -140.992805 884.416192 
100756.876185 -180.901101 877.445298 
100980.614196 -163.281776 892.977348 
100995.427723 -126.686671 898.124799 
101200.275142 -149.129648 883.008646 
101224.76569 -102.655816 881.222695 
100998.490829 -116.476316 867.911921 
101306.634266 -312.511052 792.919957 
101136.798029 -278.506366 822.154627 
101120.627873 -311.827353 801.830338 
101314.854123 -285.111529 822.160918 
100952.413093 -245.980575 846.063443 
100752.655149 -215.09116 863.8235 
100751.197924 -244.238545 844.409128 
100959.854684 -221.175271 862.870239 
100936.086974 -303.959408 801.33375 
100752.058796 -268.9513 819.971031 
100754.828715 -289.775593 791.195852 
100948.497618 -262.590592 811.795353 
100953.168678 -243.679218 839.588862 
101131.06926 -277.022731 821.813531 
101144.63622 -252.379061 845.63123 
100943.06762 -277.349411 826.184117 
100968.884579 -194.566556 880.930693 
101160.508083 -223.270239 864.300473 
101178.957791 -189.081476 877.047397 
100964.49314 -209.204685 860.220051 
101336.639092 -253.749063 841.435644 
101498.131776 -285.878021 813.140304 
101527.35046 -246.771155 827.433816 
101331.306352 -271.524862 808.239269 
101387.77646 -173.96232 861.846163 
101559.03169 -201.13265 835.37019 
101593.293199 -148.11571 836.066088 
101389.478069 -168.290288 819.444423 
101358.838786 -223.742582 817.36883 
101177.506171 -193.920209 845.211074 
101155.652184 -239.456566 836.885446 
101360.879105 -216.94152 854.941702 
100539.827952 -26.187268 883.11975 
100265.31538 -14.472573 884.52694 
100268.184241 -59.010996 894.579367 
100531.208203 -54.919766 902.872941 
99965.829819 -5.584461 877.575977 
99639.351301 0.761667 860.95159 
99667.857449 -33.44776 870.108844 
99956.940826 -35.214437 875.468939 
100000.389603 -79.11175 888.758631 
99701.76582 -62.949394 871.128376 
99739.895957 -88.277848 865.123798 
99999.841182 -80.93982 875.295654 
99976.063525 -59.835931 879.086071 
100263.881995 -73.351813 898.063092 
100256.454497 -44.008851 894.160002 
99980.49419 -45.06705 887.397639 
99283.762835 4.913579 833.09001 
98896.88891 7.245086 792.104157 
98960.356927 -16.099348 798.737223 
99275.447131 -22.805325 801.712305 
98476.497186 8.141382 735.666814 
98019.699483 8.154644 660.786581 
98131.540533 -4.981703 664.591892 
98469.139031 -16.376536 665.010352 
98652.254755 -25.424958 739.05641 
98246.687567 -15.768141 662.287012 
98364.287212 -26.058832 654.099644 
98651.686132 -27.274492 659.708804 
98558.198593 -22.207432 665.200971 
98956.437458 -29.163377 743.544319 
98889.061864 -18.844273 742.589889 
98561.941465 -9.800929 740.798452 
99490.10479 -88.417217 823.508255 
99177.589098 -68.885373 780.071931 
99254.173953 -81.491254 764.129006 
99494.96124 -72.229158 775.03009 
98842.680156 -51.267048 720.66141 
98484.523986 -35.59361 642.898082 
98602.377372 -43.345035 629.981334 
98846.100265 -39.915027 637.8214 
99035.298227 -69.357878 687.322074 
98720.226089 -49.231345 613.249571 
98836.727649 -53.921551 593.697068 
99042.588466 -45.066354 603.674553 
98944.435673 -42.824772 622.16536 
99260.635704 -59.952786 697.995607 
99181.826901 -54.760217 715.280082 
98938.882398 -61.285447 705.908966 
98748.0611 -33.531793 650.079408 
99104.126776 -47.390101 728.856923 
99028.55734 -38.642046 738.553599 
98746.328355 -39.275297 731.903262 
99435.142541 -62.701328 789.500167 
99742.429418 -79.832982 834.258293 
99701.07553 -65.250361 844.240126 
99432.90227 -70.167157 835.336211 
99324.215492 -37.935373 803.747227 
99663.456659 -48.117058 848.239002 
99630.652344 -28.234857 845.260929 
99328.429281 -23.890969 841.154394 
99378.598579 -48.770603 841.52072 
99029.250557 -36.351642 798.14839 
99102.171427 -53.885965 791.607436 
99377.859563 -51.23421 799.326705 
100578.684334 -270.22325 771.342143 
100386.080971 -234.460766 776.24994 
100409.477894 -246.313835 741.860892 
100594.057875 -218.978113 762.348932 
100180.858271 -200.12258 772.297147 
99962.557656 -167.417825 758.261764 
100008.857752 -176.388304 726.102013 
100195.044055 -152.836634 744.356972 
100249.004942 -219.107799 703.004802 
100054.497723 -183.749801 691.612168 
100099.005705 -189.698701 655.193601 
100265.731613 -163.352232 674.692071 
100230.595279 -158.673554 710.557171 
100425.749655 -192.07463 723.137457 
100400.918636 -185.001882 758.344828 
100215.030878 -210.554891 738.896584 
99730.754341 -136.567418 732.809937 
99485.087883 -107.827426 694.470457 
99560.065003 -113.824648 665.735991 
99743.213779 -95.035704 681.067761 
99225.318853 -81.502274 641.595515 
98950.937181 -57.865075 572.203863 
99061.852394 -61.144484 549.106934 
99235.089138 -48.904097 560.144855 
99406.334282 -89.838393 587.063293 
99168.823935 -63.561509 524.174043 
99271.693847 -66.211028 497.575651 
99418.194135 -50.271344 510.382654 
99328.024308 -49.516165 536.087275 
99572.541484 -72.235344 601.30178 
99496.375969 -70.198671 628.731547 
99317.102223 -86.010973 615.295635 
99961.128262 -159.191919 599.014584 
99772.205652 -126.235101 569.551883 
99836.832685 -128.671319 535.217947 
99977.319717 -105.220493 552.398024 
99575.320003 -95.911651 527.347053 
99370.725187 -68.648595 470.840879 
99463.340629 -70.31442 444.235839 
99588.026749 -53.609249 457.151237 
99727.625216 -99.118862 464.543555 
99551.743506 -71.076867 416.329184 
99634.98492 -71.570397 387.858616 
99741.434516 -53.092201 401.308124 
99666.83698 -53.320709 429.56117 
99852.072428 -77.872609 480.0519 
99786.820495 -77.519709 511.646461 
99653.45699 -97.881435 496.453852 
99504.998483 -51.964645 483.88173 
99718.243995 -76.176079 542.381164 
99646.651922 -74.263126 572.348513 
99492.614284 -93.187947 557.575216 
99921.804669 -103.618357 586.434478 
100115.711911 -134.011352 617.5445 
100070.290789 -131.106251 653.035696 
99906.316907 -155.242076 634.923202 
99804.315619 -98.415638 651.072643 
100023.567018 -127.357423 686.994601 
99975.960602 -122.741339 719.075182 
99790.624011 -144.056715 702.179867 
99849.326366 -150.232631 669.409895 
99633.287975 -118.833119 635.033749 
99704.199908 -122.964602 602.864925 
99864.00371 -101.308625 619.401413 
99139.699202 -47.142563 582.815864 
99418.619086 -67.611326 654.194295 
99339.807483 -64.145852 677.439324 
99131.041315 -76.021563 665.671627 
99681.167157 -90.988241 708.920087 
99927.931468 -117.141226 748.835428 
99879.974433 -110.344888 775.783562 
99670.195885 -127.558794 760.804752 
99556.394336 -79.806657 756.408245 
99832.641655 -102.076877 799.3933 
99786.558218 -92.029811 819.091341 
99549.185981 -103.835001 806.742278 
99609.464349 -116.757393 785.635807 
99331.469111 -91.94639 744.134528 
99408.712775 -100.62751 720.750362 
99618.692725 -85.9961 734.184196 
100159.498175 -145.688843 775.662722 
100376.455024 -176.320306 790.911324 
100352.772842 -165.787783 820.337374 
100146.945194 -187.532106 802.729873 
100579.394219 -208.786342 795.935867 
100768.900261 -242.870443 791.965577 
100764.117413 -228.755912 823.050451 
100565.739961 -254.300536 803.329891 
100553.580791 -181.577863 852.79975 
100760.925016 -211.814905 850.261354 
100759.693503 -191.629981 872.957993 
100544.259608 -212.648475 855.572351 
100554.119981 -235.259387 831.612806 
100341.595452 -203.045749 835.221248 
100363.303425 -220.158969 807.552859 
100565.76909 -196.429024 826.276199 
100027.343584 -98.876476 865.095281 
100291.213189 -119.867065 883.752636 
100275.730912 -98.48163 894.257793 
100024.50342 -108.343692 882.766229 
100535.30882 -142.819329 891.751416 
100760.827657 -167.729528 890.422253 
100764.770538 -139.588475 901.852178 
100531.764374 -154.63415 887.657368 
100528.655935 -88.890318 906.709718 
100772.007392 -106.628137 906.351066 
100783.067287 -68.208953 902.912786 
100532.678329 -75.482338 892.991902 
100530.229908 -118.03945 894.140487 
100276.045097 -97.434346 895.977673 
100288.038852 -130.448189 889.825047 
100530.240893 -118.002836 902.66502 
100536.634043 -185.961616 874.5127 
100303.397882 -158.68273 877.090654 
100321.448014 -182.708994 858.632616 
100543.266764 -163.852545 874.863772 
100051.938574 -133.314942 870.376598 
99781.199936 -109.890794 853.025755 
99824.801774 -128.209762 835.620738 
100057.741981 -113.970252 849.330744 
100113.786987 -172.459927 829.644577 
99869.983782 -143.64713 813.597462 
99916.093591 -156.600764 787.610028 
100124.418548 -137.02139 803.974952 
100090.311815 -126.55913 828.735234 
100330.327541 -153.11057 846.054049 
100309.621423 -137.937595 867.426083 
100081.920413 -154.530471 852.421445 
101557.953085 -663.989143 215.46936 
101465.811546 -624.42474 247.310508 
101456.757006 -627.520391 201.864299 
101579.417366 -592.443722 225.613462 
101368.856351 -583.463313 279.241281 
101267.175676 -541.43637 310.611586 
101260.816409 -544.361394 262.815281 
101391.566209 -507.763816 287.660856 
101354.267172 -588.761955 185.092119 
101255.628078 -546.516717 214.482052 
101251.55799 -548.104291 165.756834 
101377.522244 -511.241067 190.635038 
101383.84953 -509.781078 239.350531 
101479.220124 -552.644018 209.524373 
101487.983323 -550.519189 256.844253 
101360.833752 -586.500777 232.448528 
101160.803408 -498.645315 340.748164 
101049.836554 -455.384509 368.978227 
101048.507804 -457.97741 320.110325 
101184.119328 -420.925584 345.336321 
100934.389468 -411.972102 394.572363 
100814.551848 -368.738562 416.735292 
100820.986841 -370.839871 368.281467 
100957.612942 -334.560521 393.066858 
100938.626048 -416.058328 296.248493 
100826.822495 -372.353289 319.226929 
100831.966593 -373.406643 269.699317 
100962.491807 -336.5058 294.721755 
100960.151607 -335.733701 344.143088 
101072.224089 -378.923128 321.479762 
101073.19834 -377.511892 370.829178 
100936.572622 -414.330319 345.720591 
101149.002534 -505.875392 143.978898 
101046.320597 -462.169614 170.35032 
101046.363311 -461.718608 120.548796 
101173.314684 -424.854242 145.152769 
100941.913263 -418.161955 195.883105 
100836.348865 -374.099445 219.824114 
100839.916234 -374.572847 169.72399 
100966.17839 -337.278305 194.875529 
100943.95558 -421.213207 94.564177 
100842.551488 -375.236054 119.62012 
100846.476862 -369.299405 74.12524 
100968.954467 -337.808345 95.015421 
100967.363943 -337.608967 144.786573 
101070.143109 -382.454892 120.842865 
101070.655742 -381.053775 170.802081 
100942.952675 -418.975563 145.254748 
100964.540445 -336.987559 244.920301 
101071.022416 -380.513298 221.322182 
101071.517442 -379.88761 271.611327 
100940.448138 -417.295219 246.273164 
101174.908281 -424.525978 195.726384 
101275.408641 -468.603481 169.09128 
101279.278311 -467.682721 218.889815 
101150.762715 -505.007027 193.665707 
101180.317134 -422.569009 295.954089 
101284.228902 -466.319787 268.360713 
101290.268673 -464.459722 317.377119 
101156.658548 -501.430857 292.243984 
101153.310105 -503.504084 243.159001 
101047.512526 -459.903985 270.621488 
101046.782853 -461.311783 220.630799 
101177.24223 -423.730999 246.052742 
100690.410994 -326.016408 434.625043 
100562.069201 -284.145086 447.354145 
100579.374939 -285.704155 400.893018 
100712.783947 -251.439897 424.398812 
100429.644195 -243.475809 453.983199 
100293.271836 -204.373038 453.520317 
100324.928438 -205.415785 410.787785 
100450.340322 -174.488721 432.115163 
100475.457335 -245.628188 363.859945 
100353.741574 -206.088654 367.656519 
100379.551289 -206.459017 324.220469 
100496.685812 -174.866599 345.76296 
100474.659717 -174.79491 389.103956 
100601.340289 -212.486321 386.525681 
100583.71191 -212.002722 431.692125 
100453.667732 -244.768192 409.159657 
100153.119247 -167.217815 444.925129 
100009.409966 -132.416699 427.113747 
100059.201612 -133.021932 390.00839 
100171.230469 -106.846971 408.189266 
99862.524222 -100.417867 398.968807 
99712.942597 -71.732885 359.24787 
99784.638218 -71.886693 330.059906 
99876.941767 -52.336499 343.780684 
99978.379807 -101.152767 331.800896 
99851.068198 -72.127981 300.541455 
99911.521092 -72.552884 271.372528 
99993.066566 -52.198795 285.429049 
99937.448092 -51.85163 314.599064 
100075.839993 -77.56032 348.114116 
100025.845852 -77.629707 381.644323 
99922.770181 -100.809827 365.467047 
100292.484022 -168.861418 282.728094 
100182.833793 -133.650049 277.807632 
100215.028051 -133.473401 240.17428 
100311.241329 -106.337068 258.580624 
100073.685047 -101.418888 264.777811 
99965.397665 -72.707025 242.629191 
100013.567183 -72.42551 213.526851 
100088.532294 -51.94203 227.516802 
100147.989692 -100.906298 197.402626 
100055.904667 -72.13535 184.364384 
100092.144939 -71.808041 155.344015 
100162.933404 -51.087914 169.331613 
100128.37523 -51.434256 198.3931 
100232.060592 -76.698277 213.784194 
100199.776439 -77.17469 247.452891 
100113.441686 -101.210237 231.116919 
100043.421109 -52.530772 256.485375 
100162.943976 -77.608863 281.04706 
100121.600331 -77.706464 314.5646 
100028.745701 -101.408367 298.283417 
100281.823694 -106.724312 296.149496 
100399.707909 -139.270287 302.850662 
100373.728821 -139.464498 343.653643 
100263.194799 -168.819866 323.598637 
100211.694783 -106.91595 370.969938 
100344.713387 -139.465959 384.269325 
100312.794713 -139.296784 424.639097 
100193.359875 -168.033291 404.757809 
100230.121258 -168.555077 364.283803 
100104.883917 -133.436753 352.69762 
100146.128399 -133.651739 315.307108 
100248.611057 -106.922613 333.610816 
100747.658354 -337.806214 49.738765 
100650.098789 -286.500029 68.119886 
100722.264998 -281.131049 33.314196 
100768.293929 -261.698509 46.454845 
100553.090165 -248.474795 86.408973 
100460.729896 -206.561476 104.562664 
100468.850924 -201.092023 64.634188 
100575.640946 -173.597553 82.899773 
100556.364421 -192.723615 7.685347 
100609.653864 -219.083382 31.989711 
100409.042132 -154.588284 6.622576 
100472.136913 -202.739242 25.904621 
100579.424004 -168.270162 44.522414 
100671.817002 -213.925423 65.226523 
100559.086896 -239.121292 44.256829 
100371.0208 -168.065766 118.161159 
100283.88693 -132.62094 126.760508 
100297.718548 -131.569227 89.465812 
100390.044886 -104.502829 107.555781 
100200.726271 -100.261517 129.823178 
100122.194064 -71.417622 126.328831 
100146.015144 -71.185565 97.187759 
100215.789907 -50.051444 111.421978 
100231.478326 -101.709123 62.231827 
100163.73396 -71.502069 68.349607 
100175.722579 -67.929424 42.259032 
100247.167929 -50.114218 54.235977 
100233.884548 -50.110301 82.663193 
100314.365596 -75.984238 79.65296 
100301.044389 -75.399396 112.714193 
100218.835363 -100.180479 96.033794 
100238.878173 -63.608632 4.726254 
100279.713431 -80.40427 23.53042 
100192.057708 -32.302056 14.582118 
100180.93983 -69.674469 16.935232 
100254.463361 -46.594227 29.319743 
100323.544986 -76.735221 47.057856 
100239.796876 -95.231973 31.504545 
100319.27312 -105.016135 6.863785 
100490.203011 -142.305826 24.357952 
100399.398259 -103.270568 70.025477 
100486.368 -142.528291 60.488321 
100481.451788 -137.442132 97.454372 
100380.320718 -167.981353 77.43893 
100386.971239 -173.811612 41.155363 
100307.311406 -131.11229 53.116007 
100367.924675 -126.995948 26.469091 
100402.880883 -112.371506 36.259247 
100192.07911 -50.575566 140.363093 
100282.762033 -75.677357 146.386671 
100259.737714 -76.205639 180.103295 
100177.088125 -100.570331 163.662576 
100376.215842 -104.96653 145.373756 
100471.628861 -137.808671 138.48611 
100458.551925 -138.141785 179.667294 
100357.210597 -168.33436 159.322251 
100336.800462 -105.8682 220.919236 
100442.187094 -138.522452 220.814818 
100422.552063 -138.927132 261.892543 
100317.938144 -168.743468 241.692988 
100339.515005 -168.542833 200.535827 
100242.638015 -133.209852 202.435757 
100265.581112 -132.943973 164.604519 
100358.459596 -105.391882 183.184065 
100568.630254 -173.835553 126.501881 
100667.663802 -212.999664 110.367859 
100661.845485 -212.155482 156.208122 
100546.779612 -246.621541 132.992339 
100768.242813 -250.619672 89.979694 
100867.144715 -300.348407 72.82219 
100866.872429 -294.157068 117.678308 
100744.243912 -331.129577 93.350786 
100759.37049 -252.513419 186.424741 
100863.94479 -294.474757 167.015279 
100860.256013 -294.408326 216.378484 
100735.839162 -330.962498 191.704798 
100741.1249 -331.051293 142.386765 
100639.058144 -288.118475 162.46073 
100645.435772 -287.125724 114.906041 
100764.755245 -252.208941 138.123973 
100516.296378 -174.738203 302.165533 
100631.33889 -212.672401 295.081789 
100617.251645 -212.687545 340.96153 
100494.873439 -246.148008 318.182607 
100744.581594 -252.647369 282.574128 
100855.7171 -294.238254 265.586138 
100850.352564 -293.919717 314.534917 
100721.36872 -330.023827 290.024262 
100724.584926 -252.1353 377.542107 
100844.2346 -293.34734 363.11401 
100837.448421 -292.416651 411.215025 
100701.870876 -327.848803 386.960859 
100712.222925 -329.143527 338.720759 
100595.024871 -286.776791 353.895621 
100608.898206 -287.474687 306.468079 
100735.213365 -252.5087 330.236979 
100729.245153 -330.596223 240.978641 
100620.901608 -287.898656 258.693412 
100630.963216 -288.135186 210.63956 
100752.634608 -252.629712 234.622504 
100511.8091 -246.413516 272.197855 
100402.25266 -206.591896 280.535037 
100421.776384 -206.55811 236.650394 
100533.391317 -174.472738 258.36579 
100537.852971 -246.503756 179.52029 
100438.068486 -206.423872 192.6339 
100451.076361 -206.329755 148.548125 
100559.648693 -173.856777 170.414557 
100547.879278 -174.149057 214.419187 
100653.718354 -212.283969 202.613239 
100643.51687 -212.514 248.948645 
100526.171055 -246.509583 225.961397 
99811.532086 -52.928665 372.692226 
99971.79357 -77.867485 414.904612 
99913.803454 -78.005823 447.740492 
99797.445813 -99.91284 432.023281 
100127.387901 -106.754946 445.118857 
100278.133068 -138.954655 464.646452 
100240.900207 -138.39185 504.129459 
100109.599946 -166.04774 484.632774 
100030.239797 -106.101318 517.391094 
100201.278658 -137.497969 542.901973 
100159.471007 -136.108898 580.770681 
100013.410443 -162.199713 561.884327 
100062.97553 -164.422883 523.688055 
99898.093609 -130.377764 499.901361 
99955.680125 -131.574232 463.812772 
100080.332771 -106.565403 481.573539 
100423.873438 -173.908446 474.685656 
100564.496547 -211.167293 476.348466 
100543.844755 -209.894271 520.347873 
100403.552277 -241.645648 498.195842 
100699.923131 -250.328566 470.690198 
100830.095114 -291.014255 458.712589 
100822.292516 -289.013186 505.456455 
100677.969897 -323.506011 481.571277 
100671.576407 -246.407768 560.954979 
100814.175582 -286.26727 551.266352 
100805.896778 -282.606492 595.929118 
100650.763411 -315.78442 572.592233 
100664.697396 -320.156867 527.62836 
100523.098644 -279.047974 538.088281 
100543.254407 -281.974425 493.142615 
100686.136281 -248.69392 516.268946 
100300.078306 -166.985185 637.110605 
100475.06249 -202.175362 646.444602 
100450.574507 -197.739954 685.717572 
100282.366081 -226.025938 665.023338 
100640.847264 -239.23568 646.76387 
100797.627426 -277.834428 639.197006 
100789.560455 -271.729732 680.785589 
100621.688559 -303.098028 658.25081 
100609.398482 -227.287862 726.014362 
100781.914082 -264.048825 720.369101 
100774.93503 -254.526263 757.57302 
100592.555918 -283.429743 736.193894 
100606.996388 -294.279931 698.359674 
100433.084825 -256.038893 704.861325 
100456.538091 -263.923359 665.658246 
100625.090951 -233.964722 687.362976 
100636.357069 -310.17762 616.224316 
100479.526305 -270.229299 624.599201 
100501.788061 -275.197742 581.986465 
100656.415611 -243.315814 604.535093 
100314.762198 -231.532705 625.283638 
100141.981206 -194.408293 617.158239 
100183.112003 -198.05343 577.752971 
100333.313939 -169.693569 598.091632 
100375.575103 -239.151489 541.625781 
100222.172482 -200.817666 537.196532 
100258.956385 -202.876883 495.715971 
100395.423521 -172.990098 516.665107 
100365.170809 -171.633067 557.869726 
100521.925697 -208.072287 563.509329 
100498.927676 -205.558061 605.620839 
100345.908486 -235.840811 584.066725 
100954.968819 -332.862482 441.363082 
101074.509671 -375.524395 419.536285 
101076.240433 -372.808292 467.451857 
100932.180943 -408.822069 442.660627 
101188.682421 -418.662468 394.078329 
101297.443664 -461.945441 365.785998 
101305.805657 -458.601449 413.431767 
101165.78816 -494.976671 388.513585 
101200.339072 -411.598648 489.02598 
101315.413411 -454.227594 460.140086 
101326.332945 -448.595377 505.71107 
101178.575129 -484.145127 481.115925 
101171.682906 -490.221512 435.368067 
101053.836672 -447.487496 464.255404 
101051.580832 -451.953858 417.082831 
101194.064414 -415.616486 442.033081 
101400.755874 -505.044404 335.396855 
101498.595372 -547.643993 303.597913 
101511.07899 -543.846555 349.651446 
101378.428246 -579.46983 325.347686 
101590.909247 -589.450989 271.05645 
101677.576764 -630.164371 238.405759 
101692.048516 -626.121616 281.610473 
101569.770539 -659.913076 258.635333 
101620.525836 -580.393564 359.834654 
101708.99352 -620.895352 324.096294 
101728.411331 -614.236404 365.693573 
101600.282892 -647.870041 342.68313 
101583.879947 -654.619553 301.098492 
101489.708161 -615.082651 336.131704 
101476.78419 -620.347926 292.115175 
101604.614993 -585.502763 315.845303 
101453.287689 -483.185061 517.217374 
101560.024836 -524.688444 481.918641 
101580.272209 -514.785166 523.340664 
101433.477559 -549.218829 499.436063 
101658.987513 -565.672682 444.703962 
101750.298194 -605.857151 406.214031 
101774.646479 -595.428478 445.44518 
101640.041763 -628.825181 422.432982 
101706.366814 -542.850431 523.961239 
101801.443698 -582.576547 483.145885 
101830.671143 -566.87981 519.042486 
101689.231868 -599.96692 496.06414 
101663.44538 -615.828226 460.14528 
101561.723981 -576.612593 500.507024 
101540.582208 -589.497205 461.61738 
101681.558044 -555.452679 485.15946 
101618.995913 -639.381094 383.198878 
101521.563919 -599.96356 421.093061 
101504.620904 -608.383058 379.189684 
101638.646801 -573.878134 402.853469 
101417.07473 -559.487654 457.880245 
101305.44184 -518.232394 492.921501 
101293.810716 -526.236578 449.061942 
101437.689652 -490.771248 473.520339 
101389.614826 -574.31122 370.613925 
101283.607843 -532.594161 403.916401 
101274.752938 -537.581193 357.702477 
101411.473996 -501.447319 382.402756 
101423.769033 -496.768441 428.508316 
101525.459381 -538.921471 394.848597 
101541.764539 -532.62816 439.007638 
101402.476249 -567.744387 414.860487 
100945.538021 -278.366283 780.120482 
101109.844204 -315.066836 761.423161 
101119.551416 -297.753531 793.539008 
100931.129591 -326.394383 772.183158 
101262.321942 -352.758393 736.809264 
101403.437798 -391.217447 707.137306 
101424.027285 -371.294485 739.678801 
101247.478539 -402.236402 717.206984 
101295.32901 -311.6838 797.864895 
101446.59286 -347.482354 768.58519 
101471.253651 -319.218127 793.285723 
101284.586448 -347.492341 772.188657 
101264.938466 -377.184855 746.743098 
101106.846294 -340.103938 776.640024 
101095.178044 -363.954035 747.233239 
101277.877199 -334.055743 769.215918 
101533.620569 -430.209299 673.197769 
101653.261447 -469.487761 635.721372 
101681.77614 -447.691509 668.026825 
101518.677912 -480.018155 645.023465 
101762.715219 -508.795634 595.386395 
101862.302275 -547.86585 552.825004 
101896.300831 -525.007887 584.143302 
101748.045873 -557.693454 561.254356 
101828.00752 -459.588757 656.124579 
101932.618652 -497.7209 612.603165 
101971.193178 -465.357305 637.762313 
101816.631027 -497.510403 615.052556 
101781.111079 -530.159668 589.789962 
101668.562633 -491.736531 633.309589 
101638.406229 -519.005157 604.267955 
101794.249454 -486.365082 627.29813 
101645.756055 -319.497552 780.13566 
101780.201547 -354.413912 743.074632 
101817.332987 -311.75743 758.88854 
101639.49293 -340.374636 737.781844 
101902.082666 -390.40082 702.554286 
102011.944568 -427.202151 659.126376 
102054.772402 -382.467806 676.144861 
101895.031612 -413.904333 653.749732 
101984.564462 -295.340981 730.148587 
102099.551889 -330.288067 688.207184 
102146.129518 -269.711626 694.63881 
101983.110265 -300.188302 672.746365 
101937.879589 -361.278702 666.036502 
101813.465291 -324.649748 708.776948 
101773.518162 -376.691862 697.189872 
101942.307365 -346.51945 719.028021 
101854.607613 -459.023656 636.55381 
101736.074707 -421.32629 680.326398 
101701.103126 -459.413671 658.837616 
101863.964603 -427.833687 681.388052 
101605.617663 -384.159552 721.363682 
101462.678091 -347.803328 759.099372 
101435.59631 -384.137522 738.021479 
101614.510298 -354.517437 759.753305 
101545.307021 -453.251682 674.390864 
101410.921276 -414.98118 712.421832 
101388.500775 -441.007521 682.894406 
101558.507141 -409.25128 705.709176 
101585.448336 -384.217535 734.741871 
101712.427066 -421.667204 697.03856 
101745.232337 -390.800854 722.245262 
101574.254547 -421.530162 700.024624 
101717.425021 -580.765712 529.88258 
101610.583005 -541.862896 572.182504 
101585.040048 -560.890933 537.471686 
101733.41904 -527.452315 560.814883 
101494.271362 -502.458008 612.423362 
101368.189753 -462.825704 649.968885 
101349.851429 -480.986018 614.115957 
101510.721311 -447.624843 637.690093 
101451.757819 -536.572847 539.257362 
101333.358024 -495.98448 575.752466 
101318.591133 -508.266892 535.246379 
101470.618829 -473.702814 559.345375 
101489.74248 -461.978585 599.613545 
101602.539336 -502.559973 562.998208 
101626.858692 -487.610605 600.577307 
101471.994345 -521.139035 577.03625 
101232.008464 -423.232525 684.13575 
101085.368259 -383.935258 714.187591 
101077.182814 -400.55056 678.014642 
101248.497263 -368.269861 701.172901 
100927.881189 -345.17989 739.328067 
100759.132545 -307.201213 758.693046 
100764.628447 -321.667608 722.999848 
100944.011066 -291.413632 745.122134 
100925.390744 -373.648177 664.546903 
100771.00841 -333.569881 684.587131 
100777.998547 -343.264024 643.866335 
100944.261647 -310.745168 667.055213 
100943.662343 -302.097181 707.290694 
101094.99575 -341.174108 687.783138 
101101.72669 -329.407156 726.011055 
100926.054769 -360.789098 703.29489 
101186.566349 -476.479029 525.532508 
101060.339443 -434.510631 554.980904 
101056.714482 -441.758963 510.298075 
101207.592316 -406.392474 534.852628 
100926.643983 -392.612178 580.482391 
100785.357455 -351.070903 601.196888 
100792.872095 -357.278892 556.893019 
100947.499505 -323.09377 580.822538 
100930.063304 -404.693196 489.814621 
100800.352826 -362.145486 511.228879 
100807.629797 -365.898643 464.44189 
100952.321934 -330.497763 488.879703 
100949.788456 -327.303747 535.436789 
101078.486049 -369.187072 514.398375 
101081.355114 -364.458398 560.167141 
100928.168233 -399.371157 535.833351 
100945.602274 -317.654531 624.790237 
101084.9697 -358.391947 604.515084 
101089.466071 -350.72762 647.161324 
100925.656372 -384.140872 623.490685 
101215.921158 -399.751793 579.275589 
101338.637749 -441.44484 549.914332 
101352.408755 -432.482045 592.484756 
101195.77109 -466.918688 568.359797 
101236.248676 -381.02071 662.773221 
101367.734256 -421.376594 633.118309 
101384.709775 -407.758965 671.467632 
101218.344322 -440.70189 648.022228 
101206.316805 -455.121068 609.302205 
101070.408388 -414.25323 639.165849 
101064.851925 -425.451197 598.038432 
101225.433558 -391.398558 622.020738 
98385.780294 -8.061537 659.239688 
98827.780092 -6.57473 734.618283 
98774.17017 8.129064 718.740951 
98396.920338 29.073629 722.869039 
99232.824698 -5.335948 792.019756 
99603.828785 -5.219867 834.121544 
99584.237049 21.513987 813.516966 
99245.892839 38.224697 816.022688 
99171.787449 39.331787 744.778414 
99573.250555 52.736936 782.04698 
99572.404462 89.303402 738.214282 
99196.442422 121.514998 749.178071 
99216.247041 76.796437 788.54399 
98791.449817 65.725344 752.155782 
98840.031623 34.266963 776.999682 
99197.74586 15.125817 773.469149 
99943.491021 -6.620041 863.279489 
100254.311688 -9.905477 881.391249 
100258.385896 29.616802 858.444716 
99957.495209 40.060584 858.024839 
100538.610719 -15.454366 890.007036 
100798.521466 -23.61442 890.406808 
100818.979153 27.969595 867.56567 
100552.462461 30.718106 863.295345 
100571.084789 83.034815 831.856418 
100845.082275 87.476463 832.974902 
100877.500227 155.978632 785.063981 
100597.609011 171.448887 788.124064 
100571.424267 96.222104 832.141615 
100278.383473 96.275393 833.295226 
100268.378186 36.982849 864.568711 
100551.630548 30.24304 866.817657 
99969.849536 161.581092 700.320569 
100318.30528 189.367239 713.085659 
100358.065133 259.855952 633.099692 
100012.389931 303.382415 651.520255 
100632.81089 214.063476 720.010755 
100916.924689 234.703462 722.094743 
100964.062013 325.052147 642.143285 
100675.5022 356.367841 654.511103 
100731.299863 387.487252 539.339768 
101019.618883 428.631704 543.076015 
101084.27829 547.302582 422.525052 
100794.464818 598.037101 446.507706 
100729.293483 469.183076 560.941933 
100410.727972 435.398749 560.946847 
100361.257507 332.541327 655.006698 
100676.964181 294.752068 639.360433 
100631.965331 257.678235 729.541663 
100323.613389 242.757689 730.348573 
100296.409815 164.463195 789.134912 
100597.839439 143.925261 783.51475 
99982.653617 223.170406 725.899132 
99605.519158 199.685749 715.076184 
99599.07011 138.802101 771.056703 
99948.622082 109.731956 761.389676 
99956.665699 92.717292 827.31238 
99603.591261 86.028027 812.928997 
99617.492246 40.325012 842.372379 
99936.811931 26.538065 841.197059 
99938.089579 65.023091 807.763159 
100269.677516 75.355531 823.853701 
100289.262392 128.254366 775.998133 
99964.595497 153.376152 783.85056 
101035.984568 -34.667266 883.651167 
101252.748176 -48.814848 870.620151 
101284.550076 13.338285 850.013858 
101048.662942 7.593981 841.331769 
101450.373585 -66.175022 852.046445 
101630.244477 -86.782253 828.544271 
101669.981487 -16.091714 811.726855 
101461.102579 -30.411708 798.502897 
101526.075774 77.209909 803.372052 
101712.57981 65.112262 784.428743 
101758.085967 158.117359 745.351544 
101548.25245 151.13216 736.504009 
101502.608904 54.263388 773.261667 
101301.93697 71.294598 794.848315 
101264.530823 -9.539357 822.216972 
101486.487569 0.525605 833.180203 
101793.578455 -110.59118 800.63447 
101941.439902 -137.481917 768.766067 
101986.846671 -60.602133 756.649456 
101801.87755 -82.927531 739.156746 
102074.75351 -167.266323 733.334617 
102194.31806 -199.694831 694.697613 
102243.890822 -119.093618 687.570579 
102080.438945 -148.314873 666.421223 
102171.479305 2.456635 705.358946 
102294.575012 -26.654554 672.371017 
102346.04412 78.995139 648.136491 
102186.147213 51.349661 628.010842 
102132.32262 -55.127653 651.696857 
101998.405744 -22.071891 686.809486 
101948.437301 -114.157253 704.297703 
102122.395981 -88.21645 723.713556 
101978.355082 256.970711 677.799814 
102133.397006 243.547291 659.495682 
102184.939512 374.397978 602.747981 
102009.812597 361.829093 591.3234 
102272.896239 224.254141 638.173507 
102397.90914 199.358638 613.827755 
102449.708513 336.081784 568.328993 
102298.709169 310.297242 549.516656 
102376.202429 510.728913 522.368418 
102500.896624 490.9666 510.449794 
102550.830702 665.986176 438.929345 
102415.644679 642.20308 421.668134 
102356.8329 466.180337 492.389993 
102220.61676 493.322139 508.47718 
102162.072805 339.133285 571.757942 
102324.535313 358.521714 586.989998 
102241.699915 172.613736 594.323939 
102105.372601 203.007394 621.714899 
102050.758282 83.151382 659.658626 
102221.750158 106.114545 677.223338 
101953.550026 228.193467 646.296562 
101784.998392 247.825441 668.023076 
101733.045497 133.331218 714.069382 
101928.858313 145.887759 725.945909 
101849.541526 7.377221 718.94099 
101684.680084 32.903609 747.850191 
101639.79971 -54.931476 770.678135 
101836.378099 -36.500869 786.093493 
101881.494022 48.552146 761.602773 
102034.09581 27.609809 735.169732 
102083.019831 128.49816 703.194509 
101900.104887 110.588361 688.394812 
101412.333551 741.518364 286.728704 
101639.515449 790.290628 297.00094 
101711.513925 971.663723 136.495674 
101496.318294 1021.467509 161.577248 
101843.554721 828.89188 308.083877 
102027.240807 856.931632 319.316597 
102087.820141 1057.797996 175.425531 
101919.628251 1082.470314 186.483136 
101978.66241 1238.525263 -23.29013 
102149.518147 1285.093328 7.218677 
102211.465919 1542.117951 -187.550328 
102081.020073 1579.717474 -167.903958 
101998.224701 1316.182738 22.498932 
101805.149875 1283.783557 -0.008227 
101719.830785 1058.008414 173.46306 
101909.604143 1020.780878 155.357131 
102192.882878 874.257393 330.019185 
102342.37547 880.920256 339.523115 
102393.83001 1095.21637 215.445351 
102259.277731 1095.573568 212.671673 
102477.256161 877.144446 347.193218 
102598.755989 863.300897 352.443442 
102643.78906 1085.27599 249.615093 
102533.105121 1063.307645 233.986016 
102570.060976 1342.028421 100.730962 
102684.899261 1334.500177 129.029557 
102720.888321 1613.805099 -10.74509 
102645.307623 1592.85058 -24.986827 
102590.319799 1313.192081 114.153949 
102465.137051 1332.906508 92.931947 
102403.557848 1084.861517 224.291721 
102525.154155 1095.973266 233.653979 
102408.471956 1881.686297 -351.161681 
102532.49813 1913.26667 -290.140959 
102569.072646 2255.737034 -509.10316 
102524.390977 2268.083035 -502.693231 
102646.09247 1927.901546 -229.674921 
102750.368353 1926.284897 -171.130673 
102771.738692 2275.315001 -353.503507 
102743.780878 2253.529573 -367.185917 
102693.458102 2662.102234 -656.592754 
102783.162326 2664.568701 -559.149334 
102782.543113 3098.029407 -789.206922 
102816.40137 3071.913127 -804.113247 
102784.25358 2641.188303 -573.142961 
102689.396118 2656.815274 -659.852783 
102639.315145 2269.323389 -434.225957 
102674.259373 2274.540947 -430.321775 
102696.919813 1905.232266 -184.939772 
102584.215569 1921.906779 -234.643145 
102525.714742 1610.891973 -59.483064 
102610.826816 1618.255608 -53.178172 
102459.575504 1923.206078 -285.80103 
102321.332152 1908.338727 -337.117062 
102245.474424 1604.947584 -132.088023 
102357.488247 1582.915221 -142.810305 
102325.908207 1340.356124 69.978585 
102170.962114 1334.937908 46.177196 
102098.634453 1094.910453 199.818168 
102248.575745 1082.581252 195.755684 
102303.774712 1317.73927 38.814856 
102443.428935 1336.605951 70.339785 
102490.089471 1608.15312 -97.58671 
102392.999059 1615.153758 -95.545403 
102474.617541 840.478703 336.003667 
102341.842567 863.932257 336.264806 
102280.680976 667.537991 430.473715 
102427.335097 682.870555 442.923016 
102193.857992 877.869092 334.395824 
102029.093539 881.812091 330.91158 
101962.752093 692.899862 441.447381 
102137.476822 689.931862 443.547797 
102068.76811 513.296777 522.050042 
101899.873265 525.707696 533.313218 
101840.603357 378.016171 608.285161 
102029.807798 383.429071 615.73193 
102082.963995 527.075513 538.198973 
102237.279358 522.865931 531.52921 
102289.951744 690.962845 444.322759 
102130.215635 684.58098 436.949408 
101845.643428 875.410311 326.36309 
101641.21618 858.461944 321.319703 
101569.291443 682.251027 445.98403 
101780.985546 659.884039 437.2746 
101413.078805 830.940926 316.34487 
101157.995776 793.027535 311.963571 
101081.497777 634.894683 446.844666 
101341.772663 593.253786 427.658221 
101272.511401 515.353379 555.185531 
101015.353581 496.024039 558.945945 
100958.763165 374.165049 650.69435 
101222.85965 349.847545 641.979112 
101278.721837 463.442968 545.260064 
101511.955902 491.132558 545.980843 
101572.97315 630.985179 432.67897 
101338.618011 663.096881 446.727696 
101598.272054 261.648005 686.827912 
101391.689854 269.510201 702.604404 
101344.192566 163.836299 755.473535 
101569.31507 165.124726 761.24504 
101163.311226 271.379055 715.181469 
100910.912684 267.353489 724.29332 
100870.999464 173.867092 781.741233 
101131.04038 163.80957 781.485596 
101081.079655 83.926763 812.210329 
100838.245235 92.189867 824.850003 
100811.900888 20.983652 855.261275 
101062.629688 22.426874 861.694196 
101094.152205 88.206427 828.144322 
101320.501222 84.865154 818.089489 
101360.925593 166.962664 773.396767 
101119.108184 171.393023 770.683272 
101173.783286 250.531551 720.044872 
101406.131125 260.983597 714.340815 
101456.396834 368.460127 639.17295 
101214.257444 385.445411 643.979686 
101616.352969 265.669924 705.290763 
101806.506653 264.36049 693.07821 
101857.795486 385.448434 626.068547 
101652.880051 387.426864 622.70442 
101722.183807 511.155059 545.170559 
101911.836694 523.181868 542.655918 
101968.424987 679.583585 441.045728 
101776.491678 692.181294 444.336731 
101712.248506 530.268537 542.472762 
101503.905037 526.820804 549.716001 
101444.808936 389.909633 634.611363 
101667.294208 380.420875 633.86278 
102300.820151 -234.46363 653.187249 
102394.847698 -271.222042 609.120845 
102447.553041 -189.330654 606.711395 
102303.981575 -223.925549 582.7817 
102476.90308 -309.579998 562.8092 
102547.415833 -349.115542 514.56314 
102602.474411 -268.210232 516.125031 
102477.866108 -306.369907 490.479142 
102585.37878 -134.19197 556.201151 
102658.002428 -175.319505 512.381771 
102713.488393 -69.076144 502.700777 
102592.435837 -110.668446 475.075795 
102534.714887 -215.105268 485.790281 
102452.784335 -171.893008 530.652903 
102396.856193 -264.527059 537.574941 
102530.8733 -227.910559 562.504539 
102606.754827 -389.382278 464.698458 
102655.239894 -429.916735 413.539431 
102711.970197 -352.030473 417.952313 
102606.035279 -391.780774 391.767412 
102693.152837 -470.245575 361.421077 
102720.747815 -509.892633 308.690263 
102778.458547 -436.750816 314.567161 
102691.406311 -476.067326 289.061647 
102808.360872 -307.388942 368.768957 
102836.882078 -352.45714 317.746448 
102895.459886 -255.714877 317.893873 
102809.939661 -302.126312 288.168573 
102750.285543 -395.129984 290.238743 
102712.528902 -350.168123 340.992417 
102653.918216 -434.322328 340.754312 
102750.463432 -394.537024 366.751693 
102831.217043 5.83788 447.29024 
102882.895263 -42.84458 405.499873 
102938.044873 90.222289 391.066439 
102840.955747 38.300227 357.780313 
102923.616607 -93.38913 361.211069 
102953.564994 -145.123797 314.648089 
103010.496327 -19.176396 307.620888 
102929.331959 -74.337956 272.746123 
103033.595039 183.604423 335.124728 
103065.473056 123.745435 296.398079 
103117.629062 285.373132 280.54114 
103044.372869 219.530524 239.438095 
102987.7707 63.503563 258.554259 
102948.531931 125.179151 298.20661 
102890.505184 -17.478176 316.433462 
102979.646601 36.423232 350.729832 
102869.825808 -195.687083 282.473071 
102831.389669 -143.196896 329.30055 
102771.86356 -253.592061 337.325163 
102866.287496 -207.481455 367.067813 
102782.227538 -91.237208 374.250375 
102722.066678 -40.481858 417.095192 
102663.423829 -157.24817 431.028346 
102775.533459 -113.550803 459.716848 
102664.217869 -304.800949 390.695944 
102605.059754 -259.592422 439.053323 
102547.46314 -348.95785 441.778366 
102662.733053 -309.750338 467.845125 
102719.170819 -218.258248 466.369402 
102769.200996 -262.467274 418.408587 
102826.382413 -159.887751 414.42973 
102723.120174 -205.093731 385.033193 
102738.261055 -548.385729 255.705796 
102745.91986 -585.263215 202.837576 
102803.842806 -518.239691 208.635552 
102736.230227 -555.155155 185.001272 
102743.950882 -620.080224 150.464922 
102732.587625 -652.414563 98.974137 
102789.845309 -592.506182 103.104761 
102742.412351 -625.20866 82.444507 
102860.631867 -482.918158 159.730832 
102848.591229 -523.01476 106.64529 
102908.32292 -442.771403 109.513245 
102860.125554 -484.605869 83.360878 
102800.605117 -560.023721 83.390775 
102802.689232 -522.084939 134.96149 
102744.038039 -591.535951 133.349095 
102801.658114 -556.513732 155.626378 
102712.077138 -681.872212 48.755408 
102682.68588 -708.092373 0.199119 
102738.289708 -655.911394 1.135336 
102711.789545 -682.830856 -15.592846 
102644.70472 -730.752027 -46.308341 
102598.453039 -749.569962 -90.389178 
102651.328037 -705.354012 -94.013541 
102646.359944 -725.234612 -106.043395 
102755.632409 -626.244824 -48.142139 
102706.588428 -653.570902 -96.814537 
102763.857777 -593.231007 -98.685332 
102756.714818 -622.636794 -116.474364 
102700.469235 -677.923269 -111.551027 
102738.779359 -654.279226 -65.32457 
102683.289167 -706.081418 -61.956552 
102699.082291 -682.546416 -47.495301 
102946.659672 -398.219736 58.499469 
102914.946437 -443.265075 5.287666 
102975.429091 -349.748769 7.193503 
102946.680122 -398.151568 -22.465081 
102873.545452 -485.107056 -47.545097 
102822.708163 -523.254627 -99.509436 
102882.655167 -442.468367 -99.160334 
102873.896064 -483.93835 -124.218415 
102994.45446 -297.903856 -43.920542 
102943.152634 -349.601697 -97.501244 
103003.587298 -243.283817 -94.385037 
102993.885214 -299.801343 -128.485904 
102933.829683 -398.19366 -126.841872 
102975.299261 -350.181534 -75.689296 
102914.9991 -443.089532 -73.657468 
102933.913628 -397.913845 -46.1521 
102814.680751 -558.348066 -120.728174 
102855.110632 -523.910504 -71.219299 
102796.202287 -593.915707 -68.426142 
102813.942587 -560.808612 -48.182646 
102886.3649 -485.359905 -20.585219 
102908.213543 -443.135993 30.715929 
102848.14766 -524.493322 31.92043 
102886.435406 -485.124886 56.374224 
102768.413959 -626.520757 -17.15493 
102789.104249 -594.976384 32.551992 
102731.582811 -655.763944 32.668899 
102768.637731 -625.774851 51.471875 
102826.915858 -560.568578 54.021037 
102795.841345 -595.118846 2.281322 
102854.89487 -524.62971 3.658046 
102826.7642 -561.074105 -18.817075 
103190.039682 394.78722 228.355687 
103203.693032 319.908835 192.883015 
103250.84148 510.98568 179.55702 
103199.876006 427.574967 128.415894 
103206.872717 243.86666 153.427529 
103199.485684 167.596265 110.319613 
103250.692549 342.528867 106.974614 
103211.222432 258.365711 55.637619 
103300.159541 632.999348 135.068697 
103297.317806 539.252286 102.16055 
103338.216489 759.763605 95.737199 
103306.840554 655.26939 32.390334 
103261.498976 445.368459 45.076549 
103259.387183 539.471359 78.088043 
103210.585674 342.884306 93.978451 
103256.0324 427.14654 145.507563 
103181.455532 92.010744 63.960533 
103152.73625 17.991223 14.817693 
103207.826682 174.916362 18.082321 
103181.953111 93.669342 -31.204364 
103113.324925 -53.622484 -36.581094 
103063.273319 -122.040981 -89.654355 
103121.446849 15.705551 -83.141989 
103111.618081 -59.311964 -128.33745 
103223.907413 260.406649 -24.752878 
103177.260737 171.640722 -74.671563 
103229.779537 347.555809 -64.05859 
103220.817497 250.10693 -122.683664 
103167.728615 85.928672 -126.272409 
103206.744017 171.30748 -78.55395 
103151.927965 15.296941 -78.759362 
103170.094748 93.815782 -31.279509 
103365.318199 890.131708 62.321766 
103347.587055 773.855874 30.428894 
103381.838504 1022.888382 35.486047 
103366.505185 894.088327 -42.077293 
103318.577025 658.53899 -7.590636 
103277.974984 545.347192 -51.111988 
103320.722186 767.013455 -35.636115 
103313.836614 642.73762 -110.299343 
103388.203172 1156.763261 15.791473 
103356.796783 1014.65044 -17.433424 
103384.873383 1290.443885 3.692175 
103381.534153 1134.533199 -89.85917 
103351.482583 875.180581 -101.171428 
103379.390559 1014.728564 -69.56198 
103345.521629 766.97112 -73.200101 
103357.152494 894.080284 3.26724 
103269.884773 435.061806 -117.413908 
103304.642542 545.196467 -75.855257 
103258.000196 347.308307 -77.612349 
103273.7655 447.997562 -16.893417 
103328.740867 658.501583 -39.150963 
103342.44653 773.863739 -7.895282 
103300.820746 550.928753 0.473029 
103327.747705 655.191044 63.58205 
103235.314481 260.292224 -33.715681 
103253.524732 351.969477 7.664155 
103201.702321 174.985054 13.763187 
103234.665748 258.129782 64.345091 
103283.797234 445.206721 64.237333 
103259.383322 351.918727 21.75401 
103306.353074 550.898239 25.86041 
103284.611037 447.9194 -36.363975 
103053.395646 -187.34701 -129.028321 
103094.513647 -122.515308 -78.303922 
103035.374282 -243.814963 -77.258521 
103054.504656 -183.650307 -40.761633 
103125.53461 -53.796965 -28.827383 
103146.401304 18.075699 18.853923 
103088.576782 -120.554106 23.017886 
103125.17478 -54.996398 63.136093 
103007.10812 -298.123676 -24.462091 
103029.095303 -242.594142 26.333574 
102968.739576 -349.628374 28.875922 
103006.986135 -298.530291 60.361382 
103066.741167 -184.632026 61.921067 
103035.707478 -242.704312 9.399995 
103095.072532 -120.652356 11.932606 
103066.976031 -183.849147 -26.581317 
103157.092799 92.312163 64.241207 
103157.61289 168.072459 106.890804 
103101.48183 13.142911 117.072541 
103153.765051 81.21967 159.049364 
103147.977462 244.476293 146.41977 
103128.200844 320.612404 182.510547 
103073.670296 151.069568 201.573228 
103140.181604 218.490099 243.472551 
103034.943317 -61.718926 171.557084 
103016.530983 0.939124 216.254954 
102957.638857 -131.544254 226.950123 
103030.707755 -75.837466 261.972017 
103086.756031 62.217722 254.554311 
103097.48714 -0.172722 209.846317 
103152.235666 150.148378 202.880085 
103092.687399 81.98895 160.692372 
102920.454488 -397.731642 82.239993 
102922.906029 -349.687086 133.562519 
102862.489845 -441.890294 135.09107 
102920.347733 -398.087492 162.638084 
102915.398251 -299.583531 184.283819 
102897.763481 -248.036225 234.033311 
102837.59399 -350.084101 237.85748 
102914.082909 -303.968004 267.205161 
102795.140235 -481.621617 186.874211 
102777.745082 -439.129035 238.752921 
102718.762944 -516.508869 237.026802 
102796.180368 -478.154505 261.741507 
102854.971966 -397.105263 265.663411 
102862.824765 -440.773892 212.867699 
102922.324333 -351.626074 215.332442 
102855.043916 -396.865432 186.714896 
102972.892691 -197.371027 266.078239 
102981.733755 -249.456422 215.810862 
103040.373547 -132.821758 214.066635 
102975.592663 -188.371121 179.323168 
102980.216512 -300.717169 164.195353 
102968.475041 -350.510157 111.618253 
103028.414108 -244.864795 112.861879 
102981.008023 -298.0788 79.904411 
103097.700178 -62.627735 162.585265 
103087.433204 -124.366035 113.137588 
103144.746782 12.560623 112.330878 
103100.097211 -54.637625 71.050284 
103041.132127 -184.223434 76.221571 
103043.112688 -123.691288 124.762085 
102983.337637 -244.110149 130.186965 
103039.578898 -189.400864 164.237129 
102837.872736 3560.292864 -902.976997 
102906.91677 3519.916056 -767.716337 
102861.513432 4045.319156 -994.458807 
102960.450688 3968.886037 -1038.087767 
102974.359807 3460.290081 -640.10489 
103039.788018 3382.839672 -521.235681 
102988.662417 3893.508848 -697.381261 
103071.161439 3782.962186 -761.828226 
102855.936749 4549.31872 -1060.773916 
102917.481166 4454.241341 -890.229144 
102823.902318 5068.416018 -1099.62299 
102970.814485 4932.244509 -1178.003142 
103031.115553 4331.810151 -961.110164 
102981.122583 4444.016325 -1121.128755 
103016.35229 3884.701123 -895.495573 
102925.246626 3978.913726 -841.032909 
103102.672485 3288.992589 -412.030257 
103162.385942 3180.183991 -313.256149 
103111.701859 3671.65026 -443.045071 
103175.790584 3532.719585 -524.918658 
103218.216924 3057.861076 -225.539114 
103269.38252 2923.487292 -149.371048 
103224.196992 3391.619337 -237.296631 
103269.865866 3230.024218 -333.167849 
103101.997486 4064.179742 -453.068436 
103160.219215 3904.22168 -334.422963 
103075.50376 4463.910142 -440.7897 
103164.061379 4271.059386 -554.448046 
103226.558208 3727.646825 -438.816376 
103179.903538 3898.989192 -550.379465 
103224.484324 3387.178598 -423.122598 
103169.71246 3538.160999 -333.816439 
102768.346204 5598.771231 -1109.273634 
102833.875169 5439.92134 -908.812494 
102692.279471 6136.687948 -1088.526493 
102868.991175 5934.254468 -1205.972689 
102900.872291 5264.260313 -724.300876 
102968.088755 5073.215877 -556.279814 
102836.028979 5734.530212 -680.591666 
102973.068094 5504.91299 -815.217 
102598.700502 6678.702955 -1036.664324 
102677.435667 6450.040373 -813.21165 
102490.523151 7221.656055 -953.389157 
102679.849186 6949.198567 -1112.538559 
102840.292786 6199.788948 -959.635036 
102783.745294 6441.574024 -1174.727345 
102919.954428 5726.852204 -1002.074376 
102763.407525 5943.504745 -875.655281 
103080.277125 4862.710077 -679.998609 
103029.869757 5066.351001 -840.094112 
103115.766716 4457.865465 -689.410849 
103013.061823 4638.659068 -583.295593 
102980.207914 5255.961301 -1015.857415 
102932.408168 5430.102186 -1206.757056 
103018.19168 4789.943056 -1001.792988 
102886.138038 4942.395048 -913.321827 
103131.233541 4057.802218 -674.998529 
103081.382151 4202.574628 -812.131603 
103124.479015 3665.142994 -638.037739 
103051.071042 3790.59389 -564.452977 
102979.627692 4340.689146 -731.583746 
103041.457893 4210.169388 -585.639409 
102949.558864 4798.648026 -740.991888 
103066.818108 4631.323866 -838.708268 
103315.040661 2778.545559 -85.114368 
103354.302638 2624.540085 -33.0036 
103318.698418 3065.443339 -83.878622 
103347.579579 2887.008621 -190.218907 
103386.246402 2462.996427 6.855142 
103409.931007 2295.45953 34.486095 
103387.033438 2705.492254 15.467181 
103402.207104 2516.198764 -97.687933 
103309.997615 3355.829269 -65.821675 
103347.777633 3155.432823 -6.068948 
103290.351065 3647.677034 -30.19278 
103329.633304 3421.281565 -165.05726 
103374.444852 2948.161885 -129.747326 
103345.250714 3153.950994 -186.076194 
103378.22437 2704.279191 -137.629263 
103356.666459 2888.900574 -27.417107 
103424.412445 2123.489571 50.046579 
103428.760973 1948.655477 53.829876 
103420.674672 2324.534427 61.067818 
103426.513285 2130.492369 -55.141621 
103422.079897 1772.526114 46.267626 
103403.52565 1596.65917 27.931168 
103411.228441 1935.627743 55.463401 
103413.212111 1742.966826 -60.003568 
103407.957868 2524.383249 84.620562 
103406.362453 2309.729702 86.452121 
103387.221882 2721.372064 121.03702 
103396.657033 2486.713798 -19.444248 
103411.782183 2096.725047 -41.135759 
103416.438178 2310.41278 -43.478415 
103425.006779 1936.141496 -51.89396 
103421.840829 2130.253865 64.416982 
103261.211556 3938.995452 23.572336 
103301.472784 3687.365728 86.296335 
103224.049159 4227.849438 95.865492 
103264.383111 3949.567302 -70.084599 
103332.230201 3431.41899 131.4292 
103352.025624 3172.962234 159.326301 
103298.932549 3666.876258 201.38781 
103318.336476 3385.106575 32.881972 
103180.332715 4512.375793 186.922141 
103226.061385 4205.42153 247.239363 
103131.515674 4790.793781 296.83849 
103163.809742 4457.299214 97.60692 
103251.520311 3898.317516 63.67863 
103217.757015 4206.875626 4.588704 
103295.701211 3668.127152 -9.679455 
103266.733988 3949.029775 158.094172 
103366.105241 2915.366104 5.195632 
103353.57432 3174.015426 -22.4247 
103393.215675 2722.235388 -33.675522 
103378.688998 2957.31196 106.943482 
103331.833391 3431.877071 -66.209254 
103302.17924 3687.104285 -126.540817 
103358.536973 3191.297288 -106.113521 
103328.935704 3422.218116 31.67914 
103411.084259 2524.691099 -58.724362 
103396.739046 2737.84428 -87.365292 
103418.610463 2324.391049 -70.27628 
103408.725141 2516.827373 44.880571 
103377.496956 2948.940916 38.771687 
103397.952608 2738.025164 68.889769 
103358.824988 3191.517652 77.300321 
103380.122644 2957.693208 -62.417608 
102370.521492 7762.739596 -838.752565 
102469.374264 7460.921623 -599.616373 
102241.290794 8299.528851 -693.083551 
102428.340086 7955.468242 -895.213594 
102568.69184 7146.407619 -383.063974 
102666.877487 6820.247337 -189.448086 
102462.919041 7609.710683 -228.279831 
102598.603875 7246.114402 -443.263192 
102105.223468 8829.995514 -516.917801 
102229.136959 8453.665683 -268.898291 
101964.498198 9352.507295 -310.931142 
102137.217862 8936.643495 -556.429424 
102383.253513 8064.183241 -498.992567 
102286.433786 8450.00549 -740.719202 
102512.979423 7606.272155 -657.5414 
102352.15865 7960.533697 -448.7129 
102762.25325 6483.622751 -19.095242 
102853.052636 6137.86175 127.719867 
102677.347034 6876.586912 139.223681 
102766.441841 6497.584721 -86.030956 
102937.419555 5784.44831 250.80307 
103013.414172 5425.028378 350.071923 
102869.92689 6109.946254 406.745313 
102918.410859 5721.08599 174.678413 
102589.359409 7261.732121 322.066704 
102699.316739 6847.095156 466.573773 
102499.986408 7637.687322 529.174018 
102568.244463 7191.348967 263.084881 
102757.228149 6429.641317 217.572768 
102669.1759 6849.349799 76.592776 
102845.297352 6112.010806 56.45664 
102777.354078 6496.72775 285.607277 
101821.080149 9865.816894 -75.879103 
101973.58968 9414.740579 175.285962 
101676.730102 10369.043683 187.456385 
101825.850191 9881.717036 -101.411927 
102124.055967 8953.383965 398.841374 
102270.529692 8482.535248 594.058976 
102009.785986 9381.987695 660.635856 
102101.492291 8878.171713 360.606347 
101533.020547 10861.651177 478.312853 
101716.896106 10335.868718 728.208651 
101391.356994 11343.422956 795.985991 
101509.952882 10784.75896 463.669128 
101821.647995 9804.120034 411.721609 
101667.620906 10338.679695 167.751044 
101964.577905 9384.701329 143.783774 
101844.598733 9880.622496 438.452078 
102350.057958 8007.304156 310.897288 
102229.962172 8485.119996 120.442609 
102464.488487 7640.117193 97.976502 
102371.997726 8080.436716 359.918906 
102107.021932 8954.434078 -97.730618 
101982.998892 9414.176276 -343.067435 
102247.225679 8513.961419 -312.196657 
102102.330968 8938.797531 -60.701095 
102576.299034 7262.661242 -90.00567 
102480.41802 7668.040611 -281.972617 
102683.638504 6876.117395 -252.672079 
102571.90627 7248.018696 -32.177506 
102352.315858 8066.221813 -46.085277 
102473.017235 7668.546354 151.051751 
102238.775917 8514.499145 163.109333 
102356.8786 8081.430953 -93.916759 
103053.369724 5064.224266 134.63688 
102994.32917 5426.893119 37.692415 
103117.90234 4792.453666 20.386074 
103071.167015 5123.548568 217.858231 
102928.694378 5785.228202 -82.024026 
102858.201982 6137.43157 -224.525642 
103005.623688 5450.821214 -197.718152 
102924.736734 5772.036056 -6.928008 
103175.923984 4512.994331 -74.026196 
103127.569567 4814.785458 -172.390678 
103225.810196 4227.545805 -148.643658 
103172.480989 4501.51768 14.43362 
103060.915722 5111.891883 4.261175 
103124.705776 4815.131786 105.984803 
103001.624236 5451.210008 116.619139 
103064.622678 5124.2484 -78.013741 
102784.531716 6481.867024 -389.713445 
102709.304535 6817.058982 -577.404527 
102876.883547 6081.499461 -500.926103 
102756.033397 6386.872627 -320.521346 
102634.086468 7141.686277 -787.358292 
102560.397851 7454.571721 -1019.300126 
102744.076624 6672.176898 -888.102775 
102578.587583 6956.689992 -721.196041 
102958.491751 5676.814406 -586.252449 
102898.999329 5944.431379 -763.363107 
103027.069337 5269.817816 -645.823005 
102908.780841 5511.111372 -503.780682 
102757.47624 6206.6501 -609.290917 
102837.368741 5949.78344 -425.281845 
102667.600544 6678.045678 -510.123973 
102810.240089 6382.529594 -684.135006 
103265.914163 3937.895954 -203.652648 
103224.331694 4182.506393 -297.640428 
103294.585998 3645.915129 -239.40218 
103244.405521 3866.200482 -108.443061 
103178.705692 4419.250798 -408.47427 
103130.282661 4646.506478 -536.009953 
103210.679623 4072.423037 -434.257838 
103135.699478 4275.896752 -313.928934 
103310.197387 3353.5452 -256.423063 
103270.304286 3545.310316 -340.730286 
103311.171334 3062.783339 -255.444927 
103274.194562 3233.535782 -153.890365 
103215.046523 3731.811762 -230.139258 
103265.358641 3548.490606 -140.538044 
103192.422016 4076.140799 -203.065177 
103254.55589 3863.509653 -329.169735 
103034.242217 4868.229205 -405.207404 
103098.01166 4650.7716 -271.456446 
102980.26492 5274.631245 -345.604593 
103080.673146 5022.99897 -494.242602 
103158.03552 4422.357891 -155.30817 
103212.913381 4184.556421 -56.942797 
103113.622558 4768.295428 -86.318295 
103181.403734 4500.251938 -245.520257 
102915.615384 5680.755833 -261.517908 
102990.666143 5400.962729 -118.27197 
102842.297593 6084.416938 -152.702578 
102942.520293 5770.438866 -338.724507 
103074.220852 5110.45921 -290.589715 
103017.374408 5398.329537 -428.588664 
103132.566176 4765.953321 -360.747322 
103049.040729 5026.525469 -206.374462 
103402.604808 1423.026103 -76.192036 
103420.621476 1597.015382 -58.99328 
103404.904406 1290.654829 -64.854891 
103410.340908 1448.813103 30.090581 
103428.147235 1772.699758 -51.679069 
103425.92449 1948.547358 -54.807506 
103420.386124 1607.919141 -40.904804 
103426.294157 1766.522832 54.31819 
103396.60697 1156.821597 -45.142367 
103403.619675 1300.135531 -28.502369 
103377.159945 1022.871095 -17.525892 
103395.211756 1152.170885 60.397434 
103416.033739 1443.535029 57.749332 
103407.762117 1300.180532 41.057058 
103423.915191 1607.994433 47.164981 
103417.651224 1448.926646 -48.344169 
103414.730239 2123.003032 -68.804671 
103395.3583 2294.50143 -93.964716 
103398.437716 1922.192828 -54.934945 
103400.528462 2075.663774 37.125916 
103368.602354 2461.477957 -130.450949 
103335.239817 2622.377465 -178.297356 
103344.393048 2221.589711 -109.083912 
103339.44203 2364.276877 -23.6449 
103368.808555 1723.609474 -29.446552 
103340.423859 1857.913609 -47.522693 
103325.024439 1528.868079 6.727569 
103346.022598 1647.656283 78.414035 
103349.195634 1988.16128 30.76287 
103379.529699 1859.166102 52.065315 
103373.992518 2223.282156 12.241092 
103375.096414 2074.497211 -76.939309 
103346.067321 890.11704 17.408674 
103339.936358 1006.054849 36.354288 
103302.907467 759.829872 58.96567 
103338.072875 863.468888 121.883944 
103324.395802 1120.441084 48.635659 
103299.780001 1232.020894 54.050888 
103266.165604 965.007335 94.85972 
103307.337232 1063.579187 154.873318 
103247.350452 633.223704 106.345994 
103225.545501 725.544638 129.582855 
103179.174496 511.442819 158.655387 
103235.292034 593.028975 208.816993 
103274.803126 815.246482 184.457942 
103292.56782 725.364382 162.593582 
103327.660636 965.135775 141.677398 
103289.26874 863.465193 79.867664 
103331.55682 1340.269756 119.657777 
103354.808744 1232.49082 116.491099 
103372.601261 1529.712746 86.721184 
103351.391237 1406.38448 12.307992 
103368.492723 1120.697649 105.723189 
103372.146161 1006.158484 87.561125 
103397.766252 1280.624122 77.487851 
103377.899411 1152.053276 -0.038736 
103401.242019 1724.447723 63.562057 
103413.639194 1585.429374 65.374588 
103418.233754 1922.911571 51.083576 
103413.758443 1766.169136 -42.991677 
103400.956367 1443.304399 -20.118932 
103389.167396 1584.933195 -20.352848 
103369.161414 1280.333053 9.997968 
103390.040812 1406.919219 86.357113 
103296.016426 2775.660614 -237.41 
103251.631281 2919.807961 -307.567702 
103263.364784 2494.215676 -203.482451 
103249.470402 2620.507203 -128.072138 
103202.721964 3053.321882 -388.421401 
103149.849168 3174.726525 -479.491572 
103159.709123 2728.388379 -336.240588 
103136.555852 2832.768175 -274.173186 
103212.01256 2220.464077 -155.052229 
103156.115457 2323.218123 -207.84738 
103140.961582 1956.36402 -93.732435 
103159.142971 2044.232111 -40.646857 
103154.743614 2418.847043 -150.542946 
103213.119669 2326.731962 -91.314092 
103195.542463 2732.845236 -196.118263 
103214.137563 2616.826875 -265.264855 
103093.480098 3282.566079 -580.163046 
103033.969667 3375.401696 -689.676552 
103036.46381 2912.748312 -503.377448 
103005.652009 2989.805784 -457.861374 
102971.538232 3451.807522 -807.116251 
102906.244214 3510.366409 -931.392464 
102894.678799 3036.290277 -698.624615 
102860.206703 3080.702424 -672.762524 
102951.983624 2558.301418 -410.049109 
102871.531259 2607.956892 -489.446222 
102838.994094 2221.704034 -302.893429 
102862.192606 2258.998025 -280.01845 
102867.561122 2648.254882 -465.373478 
102946.931657 2614.307801 -376.582326 
102934.60648 3044.19107 -561.907243 
102967.92331 2982.79551 -597.977497 
103049.460504 1703.779604 -21.349514 
102974.665386 1772.278588 -55.249694 
102937.043717 1464.442846 60.074145 
102994.552552 1520.753098 95.112326 
102891.322003 1829.409769 -94.318077 
102798.969305 1874.075045 -137.833086 
102753.09704 1561.826104 6.979821 
102821.15288 1595.512695 28.688052 
102803.566162 1239.915932 148.345284 
102702.784265 1281.926673 132.855518 
102649.232292 1031.555239 241.132177 
102750.694613 1063.677433 262.644283 
102788.875259 1314.645465 154.383985 
102882.66985 1283.196625 176.051044 
102912.240177 1564.194557 64.228803 
102850.092804 1518.703948 35.574603 
102846.123191 1909.232162 -115.707336 
102933.89131 1877.656333 -64.446274 
102946.042393 2226.613393 -211.051618 
102925.829557 2174.92005 -242.493516 
103013.987479 1832.549642 -18.240641 
103086.543205 1774.96943 22.156227 
103094.568266 2118.060818 -90.579085 
103076.537578 2041.049973 -137.151789 
103021.344143 2563.925329 -293.902774 
103090.696659 2498.34683 -218.290145 
103073.095217 2918.88002 -361.660207 
103100.413873 2827.491095 -415.846358 
103094.11326 2414.653668 -268.393019 
103026.092286 2493.446371 -336.053423 
103004.887061 2114.308837 -186.968989 
103023.492811 2179.252169 -147.618666 
103098.281145 395.548066 214.914727 
103058.184576 468.338676 243.45595 
103004.708768 286.503512 274.072399 
103084.592762 349.920121 313.868097 
103007.828649 538.037379 268.031989 
102947.06415 603.704767 288.61606 
102893.695943 412.498689 333.114504 
102986.975159 468.525747 368.777204 
102898.643946 185.163771 335.018628 
102837.880106 242.657736 368.852966 
102780.430377 92.262401 396.601653 
102885.541787 141.489909 428.450384 
102937.745221 295.109028 402.518037 
102991.054758 240.990144 370.541721 
103041.060255 411.257604 343.305637 
102954.547186 351.115578 305.326031 
102875.65569 664.418703 305.257374 
102793.260594 719.284384 318.080933 
102738.738128 522.189455 378.286805 
102846.593056 567.543257 407.873955 
102699.405804 767.444822 327.286508 
102593.462437 808.091958 333.146669 
102536.339459 609.109383 410.212071 
102661.399733 640.75792 431.964203 
102586.864297 392.437966 451.950673 
102478.592618 432.362133 473.600782 
102420.834381 275.776107 524.532242 
102561.370714 307.459356 546.648845 
102612.3032 463.989861 495.532525 
102711.172 430.302362 477.41285 
102759.79526 607.733272 421.701538 
102643.768782 568.875134 395.827448 
102650.574965 8.401763 457.645471 
102567.345718 54.761776 495.748181 
102509.750805 -65.955308 516.968826 
102639.939745 -27.048971 543.186302 
102471.88151 97.971194 531.284213 
102363.576883 137.437679 564.164403 
102307.246319 15.583136 593.588193 
102456.733855 47.47901 616.031044 
102358.796906 -130.491706 573.405047 
102252.195468 -91.411464 613.824376 
102198.714539 -185.039902 625.822289 
102352.0682 -152.920725 648.484873 
102404.168787 -59.399318 636.392138 
102500.919994 -95.391343 597.605636 
102554.509684 11.974998 581.00893 
102414.882077 -23.688351 556.526213 
102509.310287 169.218427 586.454867 
102607.816357 134.268858 556.065237 
102660.258979 273.121079 521.858048 
102529.374306 236.098488 496.754534 
102694.008299 95.011101 522.692548 
102768.351926 52.000895 486.400924 
102821.936676 189.512971 462.753492 
102708.609779 143.6827 432.759164 
102798.089255 390.486117 455.9324 
102873.502823 345.188288 430.984379 
102922.219226 520.888354 390.277883 
102821.883273 469.79951 357.41922 
102765.940962 296.873337 399.628363 
102682.436062 347.044689 427.31866 
102625.091955 191.854185 466.160033 
102746.960739 233.605929 493.898734 
102707.843456 839.884518 354.74801 
102805.263023 807.494628 353.649253 
102846.592199 1031.838082 272.14419 
102752.979891 990.339301 245.184611 
102891.568957 766.818025 348.763028 
102967.155294 718.614164 339.78241 
103007.272711 940.511902 278.618531 
102926.370787 882.824126 242.234986 
102966.752875 1240.975471 193.395647 
103041.417192 1188.877815 205.88983 
103068.310518 1466.161841 120.697073 
103014.478864 1400.062101 79.8712 
102973.023425 1127.247783 167.420435 
102893.453233 1188.041529 160.031106 
102845.155934 940.470996 245.678976 
102932.001514 990.50808 277.607486 
103032.282619 663.701996 326.480104 
103087.102235 602.948051 308.709907 
103128.121073 818.11217 266.083963 
103057.551652 747.932107 222.440033 
103131.678201 537.255415 286.407381 
103166.007651 467.553338 259.589843 
103209.556714 672.248684 233.066021 
103148.543728 593.473839 184.481245 
103209.772578 983.129866 210.569557 
103247.124552 901.537161 200.47871 
103277.456644 1157.609701 161.33089 
103233.816231 1063.275378 103.803106 
103194.108263 815.336989 147.619607 
103153.136542 901.497067 160.368471 
103108.011208 672.644629 205.759503 
103173.792059 747.616306 252.16994 
103151.537515 1706.026993 56.123797 
103208.823577 1626.878473 83.168712 
103216.966682 1958.99812 1.601257 
103198.181356 1861.506462 -57.267599 
103258.152288 1538.717011 102.920448 
103299.193678 1442.765544 115.128064 
103310.87124 1759.404878 61.388932 
103290.469292 1646.440358 -6.792671 
103265.360511 2223.335781 -41.119087 
103310.921584 2110.018166 -0.341628 
103297.67803 2497.171508 -70.477069 
103306.955563 2361.985954 -151.322371 
103304.528239 1986.427605 -74.583066 
103261.58998 2107.742448 -110.507497 
103248.088708 1757.762242 -28.185975 
103267.687287 1863.62443 35.719542 
103266.398059 1339.530602 52.504677 
103224.515659 1441.706878 44.010509 
103192.397837 1157.085117 106.659454 
103238.351678 1246.042666 161.014931 
103174.335962 1537.29516 28.692671 
103115.979198 1625.057441 6.788412 
103082.743081 1326.630778 94.471843 
103133.583311 1401.45299 140.4609 
103102.671553 982.924197 167.835042 
103042.678151 1058.530034 170.119989 
102997.067982 818.323124 234.558041 
103072.614806 882.735043 274.854173 
103106.808388 1127.860354 213.111464 
103162.951078 1058.929253 214.742887 
103190.31566 1327.70688 153.99775 
103142.027738 1245.258188 103.492866 
